p cnf 912 3871
1 2 3 4 0
5 6 7 8 0
9 10 11 12 0
13 14 15 16 0
17 18 19 20 0
21 22 23 24 0
25 26 27 28 0
29 30 31 32 0
33 34 35 36 0
37 38 39 40 0
41 42 43 44 0
45 46 47 48 0
49 50 51 52 0
53 54 55 56 0
57 58 59 60 0
61 62 63 64 0
65 66 67 68 0
69 70 71 72 0
73 74 75 76 0
77 78 79 80 0
81 82 83 84 0
85 86 87 88 0
89 90 91 92 0
93 94 95 96 0
97 98 99 100 0
101 102 103 104 0
105 106 107 108 0
109 110 111 112 0
113 114 115 116 0
117 118 119 120 0
121 122 123 124 0
125 126 127 128 0
129 130 131 132 0
133 134 135 136 0
137 138 139 140 0
141 142 143 144 0
145 146 147 148 0
149 150 151 152 0
153 154 155 156 0
157 158 159 160 0
161 162 163 164 0
165 166 167 168 0
169 170 171 172 0
173 174 175 176 0
177 178 179 180 0
181 182 183 184 0
185 186 187 188 0
189 190 191 192 0
193 194 195 196 0
197 198 199 200 0
201 202 203 204 0
205 206 207 208 0
209 210 211 212 0
213 214 215 216 0
217 218 219 220 0
221 222 223 224 0
225 226 227 228 0
229 230 231 232 0
233 234 235 236 0
237 238 239 240 0
241 242 243 244 0
245 246 247 248 0
249 250 251 252 0
253 254 255 256 0
257 258 259 260 0
261 262 263 264 0
265 266 267 268 0
269 270 271 272 0
273 274 275 276 0
277 278 279 280 0
281 282 283 284 0
285 286 287 288 0
289 290 291 292 0
293 294 295 296 0
297 298 299 300 0
301 302 303 304 0
305 306 307 308 0
309 310 311 312 0
313 314 315 316 0
317 318 319 320 0
321 322 323 324 0
325 326 327 328 0
329 330 331 332 0
333 334 335 336 0
337 338 339 340 0
341 342 343 344 0
345 346 347 348 0
349 350 351 352 0
353 354 355 356 0
357 358 359 360 0
361 362 363 364 0
365 366 367 368 0
369 370 371 372 0
373 374 375 376 0
377 378 379 380 0
381 382 383 384 0
385 386 387 388 0
389 390 391 392 0
393 394 395 396 0
397 398 399 400 0
401 402 403 404 0
405 406 407 408 0
409 410 411 412 0
413 414 415 416 0
417 418 419 420 0
421 422 423 424 0
425 426 427 428 0
429 430 431 432 0
433 434 435 436 0
437 438 439 440 0
441 442 443 444 0
445 446 447 448 0
449 450 451 452 0
453 454 455 456 0
457 458 459 460 0
461 462 463 464 0
465 466 467 468 0
469 470 471 472 0
473 474 475 476 0
477 478 479 480 0
481 482 483 484 0
485 486 487 488 0
489 490 491 492 0
493 494 495 496 0
497 498 499 500 0
501 502 503 504 0
505 506 507 508 0
509 510 511 512 0
513 514 515 516 0
517 518 519 520 0
521 522 523 524 0
525 526 527 528 0
529 530 531 532 0
533 534 535 536 0
537 538 539 540 0
541 542 543 544 0
545 546 547 548 0
549 550 551 552 0
553 554 555 556 0
557 558 559 560 0
561 562 563 564 0
565 566 567 568 0
569 570 571 572 0
573 574 575 576 0
577 578 579 580 0
581 582 583 584 0
585 586 587 588 0
589 590 591 592 0
593 594 595 596 0
597 598 599 600 0
601 602 603 604 0
605 606 607 608 0
609 610 611 612 0
613 614 615 616 0
617 618 619 620 0
621 622 623 624 0
625 626 627 628 0
629 630 631 632 0
633 634 635 636 0
637 638 639 640 0
641 642 643 644 0
645 646 647 648 0
649 650 651 652 0
653 654 655 656 0
657 658 659 660 0
661 662 663 664 0
665 666 667 668 0
669 670 671 672 0
673 674 675 676 0
677 678 679 680 0
681 682 683 684 0
685 686 687 688 0
689 690 691 692 0
693 694 695 696 0
697 698 699 700 0
701 702 703 704 0
705 706 707 708 0
709 710 711 712 0
713 714 715 716 0
717 718 719 720 0
721 722 723 724 0
725 726 727 728 0
729 730 731 732 0
733 734 735 736 0
737 738 739 740 0
741 742 743 744 0
745 746 747 748 0
749 750 751 752 0
753 754 755 756 0
757 758 759 760 0
761 762 763 764 0
765 766 767 768 0
769 770 771 772 0
773 774 775 776 0
777 778 779 780 0
781 782 783 784 0
785 786 787 788 0
789 790 791 792 0
793 794 795 796 0
797 798 799 800 0
801 802 803 804 0
805 806 807 808 0
809 810 811 812 0
813 814 815 816 0
817 818 819 820 0
821 822 823 824 0
825 826 827 828 0
829 830 831 832 0
833 834 835 836 0
837 838 839 840 0
841 842 843 844 0
845 846 847 848 0
849 850 851 852 0
853 854 855 856 0
857 858 859 860 0
861 862 863 864 0
865 866 867 868 0
869 870 871 872 0
873 874 875 876 0
877 878 879 880 0
881 882 883 884 0
885 886 887 888 0
889 890 891 892 0
893 894 895 896 0
897 898 899 900 0
901 902 903 904 0
905 906 907 908 0
909 910 911 912 0
-1 -9 0
-2 -10 0
-3 -11 0
-4 -12 0
-1 -17 0
-2 -18 0
-3 -19 0
-4 -20 0
-1 -25 0
-2 -26 0
-3 -27 0
-4 -28 0
-1 -33 0
-2 -34 0
-3 -35 0
-4 -36 0
-1 -37 0
-2 -38 0
-3 -39 0
-4 -40 0
-1 -121 0
-2 -122 0
-3 -123 0
-4 -124 0
-1 -185 0
-2 -186 0
-3 -187 0
-4 -188 0
-1 -281 0
-2 -282 0
-3 -283 0
-4 -284 0
-1 -405 0
-2 -406 0
-3 -407 0
-4 -408 0
-1 -605 0
-2 -606 0
-3 -607 0
-4 -608 0
-1 -829 0
-2 -830 0
-3 -831 0
-4 -832 0
-1 -833 0
-2 -834 0
-3 -835 0
-4 -836 0
-1 -837 0
-2 -838 0
-3 -839 0
-4 -840 0
-5 -13 0
-6 -14 0
-7 -15 0
-8 -16 0
-5 -17 0
-6 -18 0
-7 -19 0
-8 -20 0
-5 -25 0
-6 -26 0
-7 -27 0
-8 -28 0
-5 -41 0
-6 -42 0
-7 -43 0
-8 -44 0
-5 -45 0
-6 -46 0
-7 -47 0
-8 -48 0
-5 -197 0
-6 -198 0
-7 -199 0
-8 -200 0
-5 -285 0
-6 -286 0
-7 -287 0
-8 -288 0
-5 -445 0
-6 -446 0
-7 -447 0
-8 -448 0
-9 -21 0
-10 -22 0
-11 -23 0
-12 -24 0
-9 -29 0
-10 -30 0
-11 -31 0
-12 -32 0
-9 -33 0
-10 -34 0
-11 -35 0
-12 -36 0
-9 -37 0
-10 -38 0
-11 -39 0
-12 -40 0
-9 -201 0
-10 -202 0
-11 -203 0
-12 -204 0
-9 -233 0
-10 -234 0
-11 -235 0
-12 -236 0
-9 -293 0
-10 -294 0
-11 -295 0
-12 -296 0
-13 -21 0
-14 -22 0
-15 -23 0
-16 -24 0
-13 -29 0
-14 -30 0
-15 -31 0
-16 -32 0
-13 -41 0
-14 -42 0
-15 -43 0
-16 -44 0
-13 -45 0
-14 -46 0
-15 -47 0
-16 -48 0
-13 -105 0
-14 -106 0
-15 -107 0
-16 -108 0
-13 -125 0
-14 -126 0
-15 -127 0
-16 -128 0
-13 -149 0
-14 -150 0
-15 -151 0
-16 -152 0
-13 -313 0
-14 -314 0
-15 -315 0
-16 -316 0
-13 -589 0
-14 -590 0
-15 -591 0
-16 -592 0
-13 -789 0
-14 -790 0
-15 -791 0
-16 -792 0
-13 -841 0
-14 -842 0
-15 -843 0
-16 -844 0
-17 -25 0
-18 -26 0
-19 -27 0
-20 -28 0
-17 -33 0
-18 -34 0
-19 -35 0
-20 -36 0
-17 -41 0
-18 -42 0
-19 -43 0
-20 -44 0
-17 -65 0
-18 -66 0
-19 -67 0
-20 -68 0
-17 -173 0
-18 -174 0
-19 -175 0
-20 -176 0
-17 -213 0
-18 -214 0
-19 -215 0
-20 -216 0
-17 -225 0
-18 -226 0
-19 -227 0
-20 -228 0
-17 -229 0
-18 -230 0
-19 -231 0
-20 -232 0
-17 -237 0
-18 -238 0
-19 -239 0
-20 -240 0
-17 -257 0
-18 -258 0
-19 -259 0
-20 -260 0
-17 -261 0
-18 -262 0
-19 -263 0
-20 -264 0
-17 -317 0
-18 -318 0
-19 -319 0
-20 -320 0
-17 -325 0
-18 -326 0
-19 -327 0
-20 -328 0
-17 -377 0
-18 -378 0
-19 -379 0
-20 -380 0
-17 -489 0
-18 -490 0
-19 -491 0
-20 -492 0
-17 -521 0
-18 -522 0
-19 -523 0
-20 -524 0
-17 -653 0
-18 -654 0
-19 -655 0
-20 -656 0
-17 -765 0
-18 -766 0
-19 -767 0
-20 -768 0
-17 -801 0
-18 -802 0
-19 -803 0
-20 -804 0
-21 -29 0
-22 -30 0
-23 -31 0
-24 -32 0
-21 -33 0
-22 -34 0
-23 -35 0
-24 -36 0
-21 -41 0
-22 -42 0
-23 -43 0
-24 -44 0
-21 -69 0
-22 -70 0
-23 -71 0
-24 -72 0
-21 -117 0
-22 -118 0
-23 -119 0
-24 -120 0
-21 -165 0
-22 -166 0
-23 -167 0
-24 -168 0
-21 -169 0
-22 -170 0
-23 -171 0
-24 -172 0
-21 -273 0
-22 -274 0
-23 -275 0
-24 -276 0
-21 -277 0
-22 -278 0
-23 -279 0
-24 -280 0
-25 -37 0
-26 -38 0
-27 -39 0
-28 -40 0
-25 -45 0
-26 -46 0
-27 -47 0
-28 -48 0
-25 -73 0
-26 -74 0
-27 -75 0
-28 -76 0
-25 -97 0
-26 -98 0
-27 -99 0
-28 -100 0
-25 -101 0
-26 -102 0
-27 -103 0
-28 -104 0
-25 -177 0
-26 -178 0
-27 -179 0
-28 -180 0
-25 -205 0
-26 -206 0
-27 -207 0
-28 -208 0
-25 -209 0
-26 -210 0
-27 -211 0
-28 -212 0
-29 -37 0
-30 -38 0
-31 -39 0
-32 -40 0
-29 -45 0
-30 -46 0
-31 -47 0
-32 -48 0
-29 -77 0
-30 -78 0
-31 -79 0
-32 -80 0
-29 -109 0
-30 -110 0
-31 -111 0
-32 -112 0
-29 -113 0
-30 -114 0
-31 -115 0
-32 -116 0
-29 -145 0
-30 -146 0
-31 -147 0
-32 -148 0
-29 -157 0
-30 -158 0
-31 -159 0
-32 -160 0
-29 -161 0
-30 -162 0
-31 -163 0
-32 -164 0
-29 -221 0
-30 -222 0
-31 -223 0
-32 -224 0
-29 -253 0
-30 -254 0
-31 -255 0
-32 -256 0
-29 -289 0
-30 -290 0
-31 -291 0
-32 -292 0
-29 -329 0
-30 -330 0
-31 -331 0
-32 -332 0
-29 -353 0
-30 -354 0
-31 -355 0
-32 -356 0
-29 -477 0
-30 -478 0
-31 -479 0
-32 -480 0
-29 -533 0
-30 -534 0
-31 -535 0
-32 -536 0
-29 -621 0
-30 -622 0
-31 -623 0
-32 -624 0
-29 -633 0
-30 -634 0
-31 -635 0
-32 -636 0
-29 -753 0
-30 -754 0
-31 -755 0
-32 -756 0
-33 -41 0
-34 -42 0
-35 -43 0
-36 -44 0
-33 -217 0
-34 -218 0
-35 -219 0
-36 -220 0
-33 -265 0
-34 -266 0
-35 -267 0
-36 -268 0
-33 -469 0
-34 -470 0
-35 -471 0
-36 -472 0
-37 -45 0
-38 -46 0
-39 -47 0
-40 -48 0
-37 -85 0
-38 -86 0
-39 -87 0
-40 -88 0
-37 -129 0
-38 -130 0
-39 -131 0
-40 -132 0
-37 -133 0
-38 -134 0
-39 -135 0
-40 -136 0
-37 -153 0
-38 -154 0
-39 -155 0
-40 -156 0
-37 -241 0
-38 -242 0
-39 -243 0
-40 -244 0
-37 -245 0
-38 -246 0
-39 -247 0
-40 -248 0
-37 -305 0
-38 -306 0
-39 -307 0
-40 -308 0
-37 -341 0
-38 -342 0
-39 -343 0
-40 -344 0
-37 -641 0
-38 -642 0
-39 -643 0
-40 -644 0
-37 -721 0
-38 -722 0
-39 -723 0
-40 -724 0
-41 -89 0
-42 -90 0
-43 -91 0
-44 -92 0
-41 -137 0
-42 -138 0
-43 -139 0
-44 -140 0
-41 -141 0
-42 -142 0
-43 -143 0
-44 -144 0
-41 -189 0
-42 -190 0
-43 -191 0
-44 -192 0
-41 -193 0
-42 -194 0
-43 -195 0
-44 -196 0
-41 -269 0
-42 -270 0
-43 -271 0
-44 -272 0
-41 -453 0
-42 -454 0
-43 -455 0
-44 -456 0
-41 -457 0
-42 -458 0
-43 -459 0
-44 -460 0
-41 -561 0
-42 -562 0
-43 -563 0
-44 -564 0
-41 -741 0
-42 -742 0
-43 -743 0
-44 -744 0
-45 -181 0
-46 -182 0
-47 -183 0
-48 -184 0
-45 -249 0
-46 -250 0
-47 -251 0
-48 -252 0
-45 -297 0
-46 -298 0
-47 -299 0
-48 -300 0
-49 -57 0
-50 -58 0
-51 -59 0
-52 -60 0
-49 -65 0
-50 -66 0
-51 -67 0
-52 -68 0
-49 -73 0
-50 -74 0
-51 -75 0
-52 -76 0
-49 -81 0
-50 -82 0
-51 -83 0
-52 -84 0
-49 -85 0
-50 -86 0
-51 -87 0
-52 -88 0
-49 -237 0
-50 -238 0
-51 -239 0
-52 -240 0
-49 -373 0
-50 -374 0
-51 -375 0
-52 -376 0
-49 -785 0
-50 -786 0
-51 -787 0
-52 -788 0
-49 -817 0
-50 -818 0
-51 -819 0
-52 -820 0
-49 -825 0
-50 -826 0
-51 -827 0
-52 -828 0
-49 -845 0
-50 -846 0
-51 -847 0
-52 -848 0
-49 -849 0
-50 -850 0
-51 -851 0
-52 -852 0
-53 -61 0
-54 -62 0
-55 -63 0
-56 -64 0
-53 -65 0
-54 -66 0
-55 -67 0
-56 -68 0
-53 -73 0
-54 -74 0
-55 -75 0
-56 -76 0
-53 -89 0
-54 -90 0
-55 -91 0
-56 -92 0
-53 -93 0
-54 -94 0
-55 -95 0
-56 -96 0
-53 -269 0
-54 -270 0
-55 -271 0
-56 -272 0
-53 -321 0
-54 -322 0
-55 -323 0
-56 -324 0
-53 -581 0
-54 -582 0
-55 -583 0
-56 -584 0
-53 -665 0
-54 -666 0
-55 -667 0
-56 -668 0
-53 -853 0
-54 -854 0
-55 -855 0
-56 -856 0
-53 -857 0
-54 -858 0
-55 -859 0
-56 -860 0
-57 -69 0
-58 -70 0
-59 -71 0
-60 -72 0
-57 -77 0
-58 -78 0
-59 -79 0
-60 -80 0
-57 -81 0
-58 -82 0
-59 -83 0
-60 -84 0
-57 -85 0
-58 -86 0
-59 -87 0
-60 -88 0
-57 -153 0
-58 -154 0
-59 -155 0
-60 -156 0
-57 -501 0
-58 -502 0
-59 -503 0
-60 -504 0
-57 -705 0
-58 -706 0
-59 -707 0
-60 -708 0
-57 -821 0
-58 -822 0
-59 -823 0
-60 -824 0
-57 -861 0
-58 -862 0
-59 -863 0
-60 -864 0
-57 -865 0
-58 -866 0
-59 -867 0
-60 -868 0
-61 -69 0
-62 -70 0
-63 -71 0
-64 -72 0
-61 -77 0
-62 -78 0
-63 -79 0
-64 -80 0
-61 -89 0
-62 -90 0
-63 -91 0
-64 -92 0
-61 -93 0
-62 -94 0
-63 -95 0
-64 -96 0
-61 -253 0
-62 -254 0
-63 -255 0
-64 -256 0
-61 -437 0
-62 -438 0
-63 -439 0
-64 -440 0
-61 -613 0
-62 -614 0
-63 -615 0
-64 -616 0
-61 -637 0
-62 -638 0
-63 -639 0
-64 -640 0
-61 -869 0
-62 -870 0
-63 -871 0
-64 -872 0
-61 -873 0
-62 -874 0
-63 -875 0
-64 -876 0
-65 -73 0
-66 -74 0
-67 -75 0
-68 -76 0
-65 -81 0
-66 -82 0
-67 -83 0
-68 -84 0
-65 -89 0
-66 -90 0
-67 -91 0
-68 -92 0
-65 -121 0
-66 -122 0
-67 -123 0
-68 -124 0
-65 -157 0
-66 -158 0
-67 -159 0
-68 -160 0
-65 -161 0
-66 -162 0
-67 -163 0
-68 -164 0
-65 -257 0
-66 -258 0
-67 -259 0
-68 -260 0
-65 -261 0
-66 -262 0
-67 -263 0
-68 -264 0
-65 -265 0
-66 -266 0
-67 -267 0
-68 -268 0
-65 -381 0
-66 -382 0
-67 -383 0
-68 -384 0
-65 -449 0
-66 -450 0
-67 -451 0
-68 -452 0
-65 -461 0
-66 -462 0
-67 -463 0
-68 -464 0
-65 -549 0
-66 -550 0
-67 -551 0
-68 -552 0
-65 -569 0
-66 -570 0
-67 -571 0
-68 -572 0
-65 -729 0
-66 -730 0
-67 -731 0
-68 -732 0
-65 -757 0
-66 -758 0
-67 -759 0
-68 -760 0
-69 -77 0
-70 -78 0
-71 -79 0
-72 -80 0
-69 -81 0
-70 -82 0
-71 -83 0
-72 -84 0
-69 -89 0
-70 -90 0
-71 -91 0
-72 -92 0
-69 -125 0
-70 -126 0
-71 -127 0
-72 -128 0
-69 -201 0
-70 -202 0
-71 -203 0
-72 -204 0
-69 -205 0
-70 -206 0
-71 -207 0
-72 -208 0
-69 -209 0
-70 -210 0
-71 -211 0
-72 -212 0
-69 -213 0
-70 -214 0
-71 -215 0
-72 -216 0
-69 -217 0
-70 -218 0
-71 -219 0
-72 -220 0
-69 -273 0
-70 -274 0
-71 -275 0
-72 -276 0
-69 -277 0
-70 -278 0
-71 -279 0
-72 -280 0
-69 -301 0
-70 -302 0
-71 -303 0
-72 -304 0
-69 -333 0
-70 -334 0
-71 -335 0
-72 -336 0
-69 -349 0
-70 -350 0
-71 -351 0
-72 -352 0
-69 -369 0
-70 -370 0
-71 -371 0
-72 -372 0
-69 -421 0
-70 -422 0
-71 -423 0
-72 -424 0
-69 -425 0
-70 -426 0
-71 -427 0
-72 -428 0
-69 -493 0
-70 -494 0
-71 -495 0
-72 -496 0
-69 -529 0
-70 -530 0
-71 -531 0
-72 -532 0
-69 -565 0
-70 -566 0
-71 -567 0
-72 -568 0
-69 -609 0
-70 -610 0
-71 -611 0
-72 -612 0
-69 -617 0
-70 -618 0
-71 -619 0
-72 -620 0
-69 -673 0
-70 -674 0
-71 -675 0
-72 -676 0
-69 -689 0
-70 -690 0
-71 -691 0
-72 -692 0
-69 -749 0
-70 -750 0
-71 -751 0
-72 -752 0
-69 -805 0
-70 -806 0
-71 -807 0
-72 -808 0
-69 -809 0
-70 -810 0
-71 -811 0
-72 -812 0
-73 -85 0
-74 -86 0
-75 -87 0
-76 -88 0
-73 -93 0
-74 -94 0
-75 -95 0
-76 -96 0
-73 -97 0
-74 -98 0
-75 -99 0
-76 -100 0
-73 -101 0
-74 -102 0
-75 -103 0
-76 -104 0
-73 -165 0
-74 -166 0
-75 -167 0
-76 -168 0
-73 -169 0
-74 -170 0
-75 -171 0
-76 -172 0
-73 -181 0
-74 -182 0
-75 -183 0
-76 -184 0
-73 -185 0
-74 -186 0
-75 -187 0
-76 -188 0
-73 -197 0
-74 -198 0
-75 -199 0
-76 -200 0
-73 -221 0
-74 -222 0
-75 -223 0
-76 -224 0
-73 -337 0
-74 -338 0
-75 -339 0
-76 -340 0
-73 -357 0
-74 -358 0
-75 -359 0
-76 -360 0
-73 -417 0
-74 -418 0
-75 -419 0
-76 -420 0
-73 -429 0
-74 -430 0
-75 -431 0
-76 -432 0
-73 -441 0
-74 -442 0
-75 -443 0
-76 -444 0
-73 -473 0
-74 -474 0
-75 -475 0
-76 -476 0
-73 -505 0
-74 -506 0
-75 -507 0
-76 -508 0
-73 -509 0
-74 -510 0
-75 -511 0
-76 -512 0
-73 -517 0
-74 -518 0
-75 -519 0
-76 -520 0
-73 -525 0
-74 -526 0
-75 -527 0
-76 -528 0
-73 -629 0
-74 -630 0
-75 -631 0
-76 -632 0
-73 -657 0
-74 -658 0
-75 -659 0
-76 -660 0
-73 -677 0
-74 -678 0
-75 -679 0
-76 -680 0
-73 -693 0
-74 -694 0
-75 -695 0
-76 -696 0
-73 -717 0
-74 -718 0
-75 -719 0
-76 -720 0
-77 -85 0
-78 -86 0
-79 -87 0
-80 -88 0
-77 -93 0
-78 -94 0
-79 -95 0
-80 -96 0
-77 -109 0
-78 -110 0
-79 -111 0
-80 -112 0
-77 -113 0
-78 -114 0
-79 -115 0
-80 -116 0
-77 -149 0
-78 -150 0
-79 -151 0
-80 -152 0
-77 -225 0
-78 -226 0
-79 -227 0
-80 -228 0
-77 -229 0
-78 -230 0
-79 -231 0
-80 -232 0
-77 -249 0
-78 -250 0
-79 -251 0
-80 -252 0
-77 -385 0
-78 -386 0
-79 -387 0
-80 -388 0
-77 -389 0
-78 -390 0
-79 -391 0
-80 -392 0
-77 -485 0
-78 -486 0
-79 -487 0
-80 -488 0
-77 -497 0
-78 -498 0
-79 -499 0
-80 -500 0
-77 -553 0
-78 -554 0
-79 -555 0
-80 -556 0
-77 -557 0
-78 -558 0
-79 -559 0
-80 -560 0
-77 -573 0
-78 -574 0
-79 -575 0
-80 -576 0
-77 -769 0
-78 -770 0
-79 -771 0
-80 -772 0
-81 -89 0
-82 -90 0
-83 -91 0
-84 -92 0
-81 -173 0
-82 -174 0
-83 -175 0
-84 -176 0
-81 -433 0
-82 -434 0
-83 -435 0
-84 -436 0
-81 -777 0
-82 -778 0
-83 -779 0
-84 -780 0
-81 -781 0
-82 -782 0
-83 -783 0
-84 -784 0
-81 -877 0
-82 -878 0
-83 -879 0
-84 -880 0
-81 -881 0
-82 -882 0
-83 -883 0
-84 -884 0
-85 -93 0
-86 -94 0
-87 -95 0
-88 -96 0
-85 -117 0
-86 -118 0
-87 -119 0
-88 -120 0
-85 -129 0
-86 -130 0
-87 -131 0
-88 -132 0
-85 -133 0
-86 -134 0
-87 -135 0
-88 -136 0
-85 -189 0
-86 -190 0
-87 -191 0
-88 -192 0
-85 -193 0
-86 -194 0
-87 -195 0
-88 -196 0
-85 -233 0
-86 -234 0
-87 -235 0
-88 -236 0
-85 -281 0
-86 -282 0
-87 -283 0
-88 -284 0
-85 -309 0
-86 -310 0
-87 -311 0
-88 -312 0
-85 -345 0
-86 -346 0
-87 -347 0
-88 -348 0
-85 -365 0
-86 -366 0
-87 -367 0
-88 -368 0
-85 -401 0
-86 -402 0
-87 -403 0
-88 -404 0
-85 -413 0
-86 -414 0
-87 -415 0
-88 -416 0
-85 -513 0
-86 -514 0
-87 -515 0
-88 -516 0
-85 -593 0
-86 -594 0
-87 -595 0
-88 -596 0
-85 -685 0
-86 -686 0
-87 -687 0
-88 -688 0
-85 -701 0
-86 -702 0
-87 -703 0
-88 -704 0
-85 -737 0
-86 -738 0
-87 -739 0
-88 -740 0
-85 -793 0
-86 -794 0
-87 -795 0
-88 -796 0
-85 -813 0
-86 -814 0
-87 -815 0
-88 -816 0
-89 -105 0
-90 -106 0
-91 -107 0
-92 -108 0
-89 -137 0
-90 -138 0
-91 -139 0
-92 -140 0
-89 -141 0
-90 -142 0
-91 -143 0
-92 -144 0
-89 -177 0
-90 -178 0
-91 -179 0
-92 -180 0
-89 -241 0
-90 -242 0
-91 -243 0
-92 -244 0
-89 -245 0
-90 -246 0
-91 -247 0
-92 -248 0
-89 -285 0
-90 -286 0
-91 -287 0
-92 -288 0
-89 -361 0
-90 -362 0
-91 -363 0
-92 -364 0
-89 -393 0
-90 -394 0
-91 -395 0
-92 -396 0
-89 -397 0
-90 -398 0
-91 -399 0
-92 -400 0
-89 -409 0
-90 -410 0
-91 -411 0
-92 -412 0
-89 -481 0
-90 -482 0
-91 -483 0
-92 -484 0
-89 -597 0
-90 -598 0
-91 -599 0
-92 -600 0
-89 -601 0
-90 -602 0
-91 -603 0
-92 -604 0
-89 -669 0
-90 -670 0
-91 -671 0
-92 -672 0
-89 -681 0
-90 -682 0
-91 -683 0
-92 -684 0
-89 -761 0
-90 -762 0
-91 -763 0
-92 -764 0
-89 -773 0
-90 -774 0
-91 -775 0
-92 -776 0
-89 -797 0
-90 -798 0
-91 -799 0
-92 -800 0
-93 -145 0
-94 -146 0
-95 -147 0
-96 -148 0
-93 -465 0
-94 -466 0
-95 -467 0
-96 -468 0
-93 -645 0
-94 -646 0
-95 -647 0
-96 -648 0
-93 -649 0
-94 -650 0
-95 -651 0
-96 -652 0
-93 -713 0
-94 -714 0
-95 -715 0
-96 -716 0
-93 -885 0
-94 -886 0
-95 -887 0
-96 -888 0
-93 -889 0
-94 -890 0
-95 -891 0
-96 -892 0
-97 -169 0
-98 -170 0
-99 -171 0
-100 -172 0
-97 -209 0
-98 -210 0
-99 -211 0
-100 -212 0
-97 -273 0
-98 -274 0
-99 -275 0
-100 -276 0
-97 -305 0
-98 -306 0
-99 -307 0
-100 -308 0
-97 -645 0
-98 -646 0
-99 -647 0
-100 -648 0
-97 -817 0
-98 -818 0
-99 -819 0
-100 -820 0
-97 -893 0
-98 -894 0
-99 -895 0
-100 -896 0
-101 -165 0
-102 -166 0
-103 -167 0
-104 -168 0
-101 -205 0
-102 -206 0
-103 -207 0
-104 -208 0
-101 -277 0
-102 -278 0
-103 -279 0
-104 -280 0
-101 -345 0
-102 -346 0
-103 -347 0
-104 -348 0
-101 -377 0
-102 -378 0
-103 -379 0
-104 -380 0
-101 -581 0
-102 -582 0
-103 -583 0
-104 -584 0
-105 -393 0
-106 -394 0
-107 -395 0
-108 -396 0
-105 -409 0
-106 -410 0
-107 -411 0
-108 -412 0
-105 -593 0
-106 -594 0
-107 -595 0
-108 -596 0
-105 -701 0
-106 -702 0
-107 -703 0
-108 -704 0
-109 -161 0
-110 -162 0
-111 -163 0
-112 -164 0
-109 -229 0
-110 -230 0
-111 -231 0
-112 -232 0
-109 -257 0
-110 -258 0
-111 -259 0
-112 -260 0
-109 -365 0
-110 -366 0
-111 -367 0
-112 -368 0
-109 -637 0
-110 -638 0
-111 -639 0
-112 -640 0
-113 -157 0
-114 -158 0
-115 -159 0
-116 -160 0
-113 -225 0
-114 -226 0
-115 -227 0
-116 -228 0
-113 -261 0
-114 -262 0
-115 -263 0
-116 -264 0
-113 -421 0
-114 -422 0
-115 -423 0
-116 -424 0
-113 -713 0
-114 -714 0
-115 -715 0
-116 -716 0
-113 -789 0
-114 -790 0
-115 -791 0
-116 -792 0
-117 -481 0
-118 -482 0
-119 -483 0
-120 -484 0
-117 -737 0
-118 -738 0
-119 -739 0
-120 -740 0
-117 -793 0
-118 -794 0
-119 -795 0
-120 -796 0
-117 -797 0
-118 -798 0
-119 -799 0
-120 -800 0
-121 -381 0
-122 -382 0
-123 -383 0
-124 -384 0
-121 -449 0
-122 -450 0
-123 -451 0
-124 -452 0
-121 -573 0
-122 -574 0
-123 -575 0
-124 -576 0
-121 -769 0
-122 -770 0
-123 -771 0
-124 -772 0
-125 -349 0
-126 -350 0
-127 -351 0
-128 -352 0
-125 -369 0
-126 -370 0
-127 -371 0
-128 -372 0
-125 -509 0
-126 -510 0
-127 -511 0
-128 -512 0
-125 -629 0
-126 -630 0
-127 -631 0
-128 -632 0
-129 -137 0
-130 -138 0
-131 -139 0
-132 -140 0
-129 -193 0
-130 -194 0
-131 -195 0
-132 -196 0
-129 -245 0
-130 -246 0
-131 -247 0
-132 -248 0
-129 -385 0
-130 -386 0
-131 -387 0
-132 -388 0
-129 -785 0
-130 -786 0
-131 -787 0
-132 -788 0
-133 -141 0
-134 -142 0
-135 -143 0
-136 -144 0
-133 -189 0
-134 -190 0
-135 -191 0
-136 -192 0
-133 -241 0
-134 -242 0
-135 -243 0
-136 -244 0
-133 -289 0
-134 -290 0
-135 -291 0
-136 -292 0
-133 -429 0
-134 -430 0
-135 -431 0
-136 -432 0
-133 -605 0
-134 -606 0
-135 -607 0
-136 -608 0
-133 -649 0
-134 -650 0
-135 -651 0
-136 -652 0
-133 -705 0
-134 -706 0
-135 -707 0
-136 -708 0
-133 -897 0
-134 -898 0
-135 -899 0
-136 -900 0
-133 -901 0
-134 -902 0
-135 -903 0
-136 -904 0
-137 -193 0
-138 -194 0
-139 -195 0
-140 -196 0
-137 -245 0
-138 -246 0
-139 -247 0
-140 -248 0
-137 -301 0
-138 -302 0
-139 -303 0
-140 -304 0
-137 -317 0
-138 -318 0
-139 -319 0
-140 -320 0
-137 -589 0
-138 -590 0
-139 -591 0
-140 -592 0
-137 -665 0
-138 -666 0
-139 -667 0
-140 -668 0
-141 -189 0
-142 -190 0
-143 -191 0
-144 -192 0
-141 -241 0
-142 -242 0
-143 -243 0
-144 -244 0
-141 -449 0
-142 -450 0
-143 -451 0
-144 -452 0
-141 -613 0
-142 -614 0
-143 -615 0
-144 -616 0
-145 -329 0
-146 -330 0
-147 -331 0
-148 -332 0
-145 -357 0
-146 -358 0
-147 -359 0
-148 -360 0
-145 -477 0
-146 -478 0
-147 -479 0
-148 -480 0
-145 -521 0
-146 -522 0
-147 -523 0
-148 -524 0
-145 -765 0
-146 -766 0
-147 -767 0
-148 -768 0
-149 -385 0
-150 -386 0
-151 -387 0
-152 -388 0
-149 -389 0
-150 -390 0
-151 -391 0
-152 -392 0
-149 -729 0
-150 -730 0
-151 -731 0
-152 -732 0
-149 -757 0
-150 -758 0
-151 -759 0
-152 -760 0
-153 -305 0
-154 -306 0
-155 -307 0
-156 -308 0
-153 -341 0
-154 -342 0
-155 -343 0
-156 -344 0
-153 -349 0
-154 -350 0
-155 -351 0
-156 -352 0
-153 -561 0
-154 -562 0
-155 -563 0
-156 -564 0
-153 -741 0
-154 -742 0
-155 -743 0
-156 -744 0
-157 -161 0
-158 -162 0
-159 -163 0
-160 -164 0
-157 -165 0
-158 -166 0
-159 -167 0
-160 -168 0
-157 -261 0
-158 -262 0
-159 -263 0
-160 -264 0
-157 -297 0
-158 -298 0
-159 -299 0
-160 -300 0
-157 -341 0
-158 -342 0
-159 -343 0
-160 -344 0
-157 -397 0
-158 -398 0
-159 -399 0
-160 -400 0
-157 -433 0
-158 -434 0
-159 -435 0
-160 -436 0
-157 -709 0
-158 -710 0
-159 -711 0
-160 -712 0
-157 -745 0
-158 -746 0
-159 -747 0
-160 -748 0
-161 -245 0
-162 -246 0
-163 -247 0
-164 -248 0
-161 -257 0
-162 -258 0
-163 -259 0
-164 -260 0
-161 -313 0
-162 -314 0
-163 -315 0
-164 -316 0
-161 -373 0
-162 -374 0
-163 -375 0
-164 -376 0
-161 -401 0
-162 -402 0
-163 -403 0
-164 -404 0
-161 -417 0
-162 -418 0
-163 -419 0
-164 -420 0
-161 -537 0
-162 -538 0
-163 -539 0
-164 -540 0
-161 -585 0
-162 -586 0
-163 -587 0
-164 -588 0
-165 -169 0
-166 -170 0
-167 -171 0
-168 -172 0
-165 -277 0
-166 -278 0
-167 -279 0
-168 -280 0
-165 -309 0
-166 -310 0
-167 -311 0
-168 -312 0
-165 -465 0
-166 -466 0
-167 -467 0
-168 -468 0
-165 -469 0
-166 -470 0
-167 -471 0
-168 -472 0
-165 -709 0
-166 -710 0
-167 -711 0
-168 -712 0
-165 -745 0
-166 -746 0
-167 -747 0
-168 -748 0
-169 -193 0
-170 -194 0
-171 -195 0
-172 -196 0
-169 -273 0
-170 -274 0
-171 -275 0
-172 -276 0
-169 -293 0
-170 -294 0
-171 -295 0
-172 -296 0
-169 -321 0
-170 -322 0
-171 -323 0
-172 -324 0
-169 -353 0
-170 -354 0
-171 -355 0
-172 -356 0
-169 -381 0
-170 -382 0
-171 -383 0
-172 -384 0
-169 -625 0
-170 -626 0
-171 -627 0
-172 -628 0
-169 -697 0
-170 -698 0
-171 -699 0
-172 -700 0
-173 -369 0
-174 -370 0
-175 -371 0
-176 -372 0
-173 -377 0
-174 -378 0
-175 -379 0
-176 -380 0
-173 -489 0
-174 -490 0
-175 -491 0
-176 -492 0
-173 -621 0
-174 -622 0
-175 -623 0
-176 -624 0
-173 -633 0
-174 -634 0
-175 -635 0
-176 -636 0
-177 -401 0
-178 -402 0
-179 -403 0
-180 -404 0
-177 -681 0
-178 -682 0
-179 -683 0
-180 -684 0
-177 -685 0
-178 -686 0
-179 -687 0
-180 -688 0
-177 -773 0
-178 -774 0
-179 -775 0
-180 -776 0
-181 -441 0
-182 -442 0
-183 -443 0
-184 -444 0
-181 -473 0
-182 -474 0
-183 -475 0
-184 -476 0
-181 -529 0
-182 -530 0
-183 -531 0
-184 -532 0
-181 -617 0
-182 -618 0
-183 -619 0
-184 -620 0
-185 -337 0
-186 -338 0
-187 -339 0
-188 -340 0
-185 -357 0
-186 -358 0
-187 -359 0
-188 -360 0
-185 -565 0
-186 -566 0
-187 -567 0
-188 -568 0
-185 -749 0
-186 -750 0
-187 -751 0
-188 -752 0
-189 -193 0
-190 -194 0
-191 -195 0
-192 -196 0
-189 -225 0
-190 -226 0
-191 -227 0
-192 -228 0
-189 -313 0
-190 -314 0
-191 -315 0
-192 -316 0
-189 -373 0
-190 -374 0
-191 -375 0
-192 -376 0
-189 -473 0
-190 -474 0
-191 -475 0
-192 -476 0
-189 -541 0
-190 -542 0
-191 -543 0
-192 -544 0
-189 -545 0
-190 -546 0
-191 -547 0
-192 -548 0
-193 -333 0
-194 -334 0
-195 -335 0
-196 -336 0
-193 -445 0
-194 -446 0
-195 -447 0
-196 -448 0
-193 -485 0
-194 -486 0
-195 -487 0
-196 -488 0
-193 -489 0
-194 -490 0
-195 -491 0
-196 -492 0
-193 -501 0
-194 -502 0
-195 -503 0
-196 -504 0
-193 -625 0
-194 -626 0
-195 -627 0
-196 -628 0
-193 -697 0
-194 -698 0
-195 -699 0
-196 -700 0
-197 -417 0
-198 -418 0
-199 -419 0
-200 -420 0
-197 -429 0
-198 -430 0
-199 -431 0
-200 -432 0
-197 -609 0
-198 -610 0
-199 -611 0
-200 -612 0
-197 -673 0
-198 -674 0
-199 -675 0
-200 -676 0
-201 -301 0
-202 -302 0
-203 -303 0
-204 -304 0
-201 -493 0
-202 -494 0
-203 -495 0
-204 -496 0
-201 -657 0
-202 -658 0
-203 -659 0
-204 -660 0
-201 -717 0
-202 -718 0
-203 -719 0
-204 -720 0
-205 -209 0
-206 -210 0
-207 -211 0
-208 -212 0
-205 -241 0
-206 -242 0
-207 -243 0
-208 -244 0
-205 -277 0
-206 -278 0
-207 -279 0
-208 -280 0
-205 -325 0
-206 -326 0
-207 -327 0
-208 -328 0
-205 -389 0
-206 -390 0
-207 -391 0
-208 -392 0
-205 -445 0
-206 -446 0
-207 -447 0
-208 -448 0
-205 -501 0
-206 -502 0
-207 -503 0
-208 -504 0
-205 -577 0
-206 -578 0
-207 -579 0
-208 -580 0
-205 -661 0
-206 -662 0
-207 -663 0
-208 -664 0
-209 -229 0
-210 -230 0
-211 -231 0
-212 -232 0
-209 -273 0
-210 -274 0
-211 -275 0
-212 -276 0
-209 -297 0
-210 -298 0
-211 -299 0
-212 -300 0
-209 -409 0
-210 -410 0
-211 -411 0
-212 -412 0
-209 -433 0
-210 -434 0
-211 -435 0
-212 -436 0
-209 -725 0
-210 -726 0
-211 -727 0
-212 -728 0
-209 -733 0
-210 -734 0
-211 -735 0
-212 -736 0
-213 -505 0
-214 -506 0
-215 -507 0
-216 -508 0
-213 -805 0
-214 -806 0
-215 -807 0
-216 -808 0
-213 -809 0
-214 -810 0
-215 -811 0
-216 -812 0
-217 -421 0
-218 -422 0
-219 -423 0
-220 -424 0
-217 -425 0
-218 -426 0
-219 -427 0
-220 -428 0
-217 -525 0
-218 -526 0
-219 -527 0
-220 -528 0
-217 -693 0
-218 -694 0
-219 -695 0
-220 -696 0
-221 -333 0
-222 -334 0
-223 -335 0
-224 -336 0
-221 -517 0
-222 -518 0
-223 -519 0
-224 -520 0
-221 -677 0
-222 -678 0
-223 -679 0
-224 -680 0
-221 -689 0
-222 -690 0
-223 -691 0
-224 -692 0
-225 -229 0
-226 -230 0
-227 -231 0
-228 -232 0
-225 -261 0
-226 -262 0
-227 -263 0
-228 -264 0
-225 -405 0
-226 -406 0
-227 -407 0
-228 -408 0
-225 -437 0
-226 -438 0
-227 -439 0
-228 -440 0
-225 -481 0
-226 -482 0
-227 -483 0
-228 -484 0
-225 -493 0
-226 -494 0
-227 -495 0
-228 -496 0
-225 -541 0
-226 -542 0
-227 -543 0
-228 -544 0
-225 -545 0
-226 -546 0
-227 -547 0
-228 -548 0
-229 -257 0
-230 -258 0
-231 -259 0
-232 -260 0
-229 -413 0
-230 -414 0
-231 -415 0
-232 -416 0
-229 -457 0
-230 -458 0
-231 -459 0
-232 -460 0
-229 -465 0
-230 -466 0
-231 -467 0
-232 -468 0
-229 -469 0
-230 -470 0
-231 -471 0
-232 -472 0
-229 -725 0
-230 -726 0
-231 -727 0
-232 -728 0
-229 -733 0
-230 -734 0
-231 -735 0
-232 -736 0
-233 -345 0
-234 -346 0
-235 -347 0
-236 -348 0
-233 -413 0
-234 -414 0
-235 -415 0
-236 -416 0
-233 -601 0
-234 -602 0
-235 -603 0
-236 -604 0
-233 -761 0
-234 -762 0
-235 -763 0
-236 -764 0
-237 -317 0
-238 -318 0
-239 -319 0
-240 -320 0
-237 -325 0
-238 -326 0
-239 -327 0
-240 -328 0
-237 -533 0
-238 -534 0
-239 -535 0
-240 -536 0
-237 -753 0
-238 -754 0
-239 -755 0
-240 -756 0
-241 -245 0
-242 -246 0
-243 -247 0
-244 -248 0
-241 -293 0
-242 -294 0
-243 -295 0
-244 -296 0
-241 -321 0
-242 -322 0
-243 -323 0
-244 -324 0
-241 -329 0
-242 -330 0
-243 -331 0
-244 -332 0
-241 -461 0
-242 -462 0
-243 -463 0
-244 -464 0
-241 -577 0
-242 -578 0
-243 -579 0
-244 -580 0
-241 -661 0
-242 -662 0
-243 -663 0
-244 -664 0
-245 -405 0
-246 -406 0
-247 -407 0
-248 -408 0
-245 -425 0
-246 -426 0
-247 -427 0
-248 -428 0
-245 -437 0
-246 -438 0
-247 -439 0
-248 -440 0
-245 -537 0
-246 -538 0
-247 -539 0
-248 -540 0
-245 -585 0
-246 -586 0
-247 -587 0
-248 -588 0
-249 -485 0
-250 -486 0
-251 -487 0
-252 -488 0
-249 -497 0
-250 -498 0
-251 -499 0
-252 -500 0
-249 -549 0
-250 -550 0
-251 -551 0
-252 -552 0
-249 -569 0
-250 -570 0
-251 -571 0
-252 -572 0
-253 -289 0
-254 -290 0
-255 -291 0
-256 -292 0
-253 -353 0
-254 -354 0
-255 -355 0
-256 -356 0
-253 -653 0
-254 -654 0
-255 -655 0
-256 -656 0
-253 -801 0
-254 -802 0
-255 -803 0
-256 -804 0
-257 -441 0
-258 -442 0
-259 -443 0
-260 -444 0
-257 -781 0
-258 -782 0
-259 -783 0
-260 -784 0
-257 -829 0
-258 -830 0
-259 -831 0
-260 -832 0
-261 -393 0
-262 -394 0
-263 -395 0
-264 -396 0
-261 -825 0
-262 -826 0
-263 -827 0
-264 -828 0
-265 -461 0
-266 -462 0
-267 -463 0
-268 -464 0
-265 -553 0
-266 -554 0
-267 -555 0
-268 -556 0
-265 -557 0
-266 -558 0
-267 -559 0
-268 -560 0
-269 -337 0
-270 -338 0
-271 -339 0
-272 -340 0
-269 -453 0
-270 -454 0
-271 -455 0
-272 -456 0
-269 -457 0
-270 -458 0
-271 -459 0
-272 -460 0
-269 -641 0
-270 -642 0
-271 -643 0
-272 -644 0
-269 -721 0
-270 -722 0
-271 -723 0
-272 -724 0
-273 -361 0
-274 -362 0
-275 -363 0
-276 -364 0
-273 -477 0
-274 -478 0
-275 -479 0
-276 -480 0
-273 -821 0
-274 -822 0
-275 -823 0
-276 -824 0
-277 -453 0
-278 -454 0
-279 -455 0
-280 -456 0
-277 -497 0
-278 -498 0
-279 -499 0
-280 -500 0
-277 -777 0
-278 -778 0
-279 -779 0
-280 -780 0
-277 -905 0
-278 -906 0
-279 -907 0
-280 -908 0
-277 -909 0
-278 -910 0
-279 -911 0
-280 -912 0
-281 -309 0
-282 -310 0
-283 -311 0
-284 -312 0
-281 -365 0
-282 -366 0
-283 -367 0
-284 -368 0
-281 -597 0
-282 -598 0
-283 -599 0
-284 -600 0
-281 -669 0
-282 -670 0
-283 -671 0
-284 -672 0
-285 -361 0
-286 -362 0
-287 -363 0
-288 -364 0
-285 -397 0
-286 -398 0
-287 -399 0
-288 -400 0
-285 -513 0
-286 -514 0
-287 -515 0
-288 -516 0
-285 -813 0
-286 -814 0
-287 -815 0
-288 -816 0
-289 -325 0
-290 -326 0
-291 -327 0
-292 -328 0
-289 -653 0
-290 -654 0
-291 -655 0
-292 -656 0
-289 -753 0
-290 -754 0
-291 -755 0
-292 -756 0
-293 -321 0
-294 -322 0
-295 -323 0
-296 -324 0
-293 -525 0
-294 -526 0
-295 -527 0
-296 -528 0
-293 -597 0
-294 -598 0
-295 -599 0
-296 -600 0
-293 -661 0
-294 -662 0
-295 -663 0
-296 -664 0
-293 -697 0
-294 -698 0
-295 -699 0
-296 -700 0
-297 -433 0
-298 -434 0
-299 -435 0
-300 -436 0
-297 -673 0
-298 -674 0
-299 -675 0
-300 -676 0
-297 -733 0
-298 -734 0
-299 -735 0
-300 -736 0
-297 -745 0
-298 -746 0
-299 -747 0
-300 -748 0
-297 -757 0
-298 -758 0
-299 -759 0
-300 -760 0
-301 -417 0
-302 -418 0
-303 -419 0
-304 -420 0
-301 -609 0
-302 -610 0
-303 -611 0
-304 -612 0
-301 -657 0
-302 -658 0
-303 -659 0
-304 -660 0
-301 -905 0
-302 -906 0
-303 -907 0
-304 -908 0
-305 -457 0
-306 -458 0
-307 -459 0
-308 -460 0
-305 -561 0
-306 -562 0
-307 -563 0
-308 -564 0
-305 -721 0
-306 -722 0
-307 -723 0
-308 -724 0
-309 -393 0
-310 -394 0
-311 -395 0
-312 -396 0
-309 -669 0
-310 -670 0
-311 -671 0
-312 -672 0
-309 -701 0
-310 -702 0
-311 -703 0
-312 -704 0
-313 -373 0
-314 -374 0
-315 -375 0
-316 -376 0
-313 -513 0
-314 -514 0
-315 -515 0
-316 -516 0
-313 -537 0
-314 -538 0
-315 -539 0
-316 -540 0
-313 -545 0
-314 -546 0
-315 -547 0
-316 -548 0
-313 -569 0
-314 -570 0
-315 -571 0
-316 -572 0
-313 -605 0
-314 -606 0
-315 -607 0
-316 -608 0
-313 -829 0
-314 -830 0
-315 -831 0
-316 -832 0
-313 -841 0
-314 -842 0
-315 -843 0
-316 -844 0
-317 -353 0
-318 -354 0
-319 -355 0
-320 -356 0
-317 -533 0
-318 -534 0
-319 -535 0
-320 -536 0
-317 -801 0
-318 -802 0
-319 -803 0
-320 -804 0
-321 -577 0
-322 -578 0
-323 -579 0
-324 -580 0
-321 -625 0
-322 -626 0
-323 -627 0
-324 -628 0
-321 -685 0
-322 -686 0
-323 -687 0
-324 -688 0
-321 -705 0
-322 -706 0
-323 -707 0
-324 -708 0
-321 -821 0
-322 -822 0
-323 -823 0
-324 -824 0
-321 -853 0
-322 -854 0
-323 -855 0
-324 -856 0
-321 -857 0
-322 -858 0
-323 -859 0
-324 -860 0
-325 -653 0
-326 -654 0
-327 -655 0
-328 -656 0
-325 -753 0
-326 -754 0
-327 -755 0
-328 -756 0
-329 -377 0
-330 -378 0
-331 -379 0
-332 -380 0
-329 -521 0
-330 -522 0
-331 -523 0
-332 -524 0
-329 -633 0
-330 -634 0
-331 -635 0
-332 -636 0
-333 -677 0
-334 -678 0
-335 -679 0
-336 -680 0
-333 -689 0
-334 -690 0
-335 -691 0
-336 -692 0
-333 -805 0
-334 -806 0
-335 -807 0
-336 -808 0
-337 -369 0
-338 -370 0
-339 -371 0
-340 -372 0
-337 -461 0
-338 -462 0
-339 -463 0
-340 -464 0
-337 -565 0
-338 -566 0
-339 -567 0
-340 -568 0
-337 -629 0
-338 -630 0
-339 -631 0
-340 -632 0
-341 -453 0
-342 -454 0
-343 -455 0
-344 -456 0
-341 -641 0
-342 -642 0
-343 -643 0
-344 -644 0
-341 -741 0
-342 -742 0
-343 -743 0
-344 -744 0
-345 -397 0
-346 -398 0
-347 -399 0
-348 -400 0
-345 -761 0
-346 -762 0
-347 -763 0
-348 -764 0
-345 -813 0
-346 -814 0
-347 -815 0
-348 -816 0
-349 -357 0
-350 -358 0
-351 -359 0
-352 -360 0
-349 -485 0
-350 -486 0
-351 -487 0
-352 -488 0
-349 -509 0
-350 -510 0
-351 -511 0
-352 -512 0
-349 -749 0
-350 -750 0
-351 -751 0
-352 -752 0
-353 -533 0
-354 -534 0
-355 -535 0
-356 -536 0
-353 -801 0
-354 -802 0
-355 -803 0
-356 -804 0
-357 -413 0
-358 -414 0
-359 -415 0
-360 -416 0
-357 -509 0
-358 -510 0
-359 -511 0
-360 -512 0
-357 -749 0
-358 -750 0
-359 -751 0
-360 -752 0
-361 -413 0
-362 -414 0
-363 -415 0
-364 -416 0
-361 -513 0
-362 -514 0
-363 -515 0
-364 -516 0
-361 -601 0
-362 -602 0
-363 -603 0
-364 -604 0
-365 -409 0
-366 -410 0
-367 -411 0
-368 -412 0
-365 -593 0
-366 -594 0
-367 -595 0
-368 -596 0
-365 -597 0
-366 -598 0
-367 -599 0
-368 -600 0
-365 -897 0
-366 -898 0
-367 -899 0
-368 -900 0
-369 -397 0
-370 -398 0
-371 -399 0
-372 -400 0
-369 -565 0
-370 -566 0
-371 -567 0
-372 -568 0
-369 -629 0
-370 -630 0
-371 -631 0
-372 -632 0
-373 -541 0
-374 -542 0
-375 -543 0
-376 -544 0
-373 -561 0
-374 -562 0
-375 -563 0
-376 -564 0
-373 -585 0
-374 -586 0
-375 -587 0
-376 -588 0
-373 -613 0
-374 -614 0
-375 -615 0
-376 -616 0
-373 -633 0
-374 -634 0
-375 -635 0
-376 -636 0
-373 -637 0
-374 -638 0
-375 -639 0
-376 -640 0
-373 -845 0
-374 -846 0
-375 -847 0
-376 -848 0
-373 -849 0
-374 -850 0
-375 -851 0
-376 -852 0
-377 -521 0
-378 -522 0
-379 -523 0
-380 -524 0
-377 -633 0
-378 -634 0
-379 -635 0
-380 -636 0
-381 -385 0
-382 -386 0
-383 -387 0
-384 -388 0
-381 -573 0
-382 -574 0
-383 -575 0
-384 -576 0
-381 -757 0
-382 -758 0
-383 -759 0
-384 -760 0
-385 -573 0
-386 -574 0
-387 -575 0
-388 -576 0
-385 -757 0
-386 -758 0
-387 -759 0
-388 -760 0
-389 -449 0
-390 -450 0
-391 -451 0
-392 -452 0
-389 -729 0
-390 -730 0
-391 -731 0
-392 -732 0
-389 -769 0
-390 -770 0
-391 -771 0
-392 -772 0
-393 -669 0
-394 -670 0
-395 -671 0
-396 -672 0
-393 -701 0
-394 -702 0
-395 -703 0
-396 -704 0
-397 -761 0
-398 -762 0
-399 -763 0
-400 -764 0
-397 -813 0
-398 -814 0
-399 -815 0
-400 -816 0
-401 -681 0
-402 -682 0
-403 -683 0
-404 -684 0
-401 -685 0
-402 -686 0
-403 -687 0
-404 -688 0
-401 -737 0
-402 -738 0
-403 -739 0
-404 -740 0
-405 -437 0
-406 -438 0
-407 -439 0
-408 -440 0
-405 -541 0
-406 -542 0
-407 -543 0
-408 -544 0
-405 -553 0
-406 -554 0
-407 -555 0
-408 -556 0
-405 -585 0
-406 -586 0
-407 -587 0
-408 -588 0
-405 -589 0
-406 -590 0
-407 -591 0
-408 -592 0
-405 -761 0
-406 -762 0
-407 -763 0
-408 -764 0
-405 -789 0
-406 -790 0
-407 -791 0
-408 -792 0
-405 -833 0
-406 -834 0
-407 -835 0
-408 -836 0
-405 -837 0
-406 -838 0
-407 -839 0
-408 -840 0
-409 -593 0
-410 -594 0
-411 -595 0
-412 -596 0
-409 -597 0
-410 -598 0
-411 -599 0
-412 -600 0
-413 -513 0
-414 -514 0
-415 -515 0
-416 -516 0
-413 -601 0
-414 -602 0
-415 -603 0
-416 -604 0
-413 -901 0
-414 -902 0
-415 -903 0
-416 -904 0
-417 -609 0
-418 -610 0
-419 -611 0
-420 -612 0
-417 -657 0
-418 -658 0
-419 -659 0
-420 -660 0
-421 -473 0
-422 -474 0
-423 -475 0
-424 -476 0
-421 -525 0
-422 -526 0
-423 -527 0
-424 -528 0
-421 -529 0
-422 -530 0
-423 -531 0
-424 -532 0
-425 -441 0
-426 -442 0
-427 -443 0
-428 -444 0
-425 -617 0
-426 -618 0
-427 -619 0
-428 -620 0
-425 -693 0
-426 -694 0
-427 -695 0
-428 -696 0
-425 -909 0
-426 -910 0
-427 -911 0
-428 -912 0
-429 -493 0
-430 -494 0
-431 -495 0
-432 -496 0
-429 -673 0
-430 -674 0
-431 -675 0
-432 -676 0
-429 -717 0
-430 -718 0
-431 -719 0
-432 -720 0
-429 -893 0
-430 -894 0
-431 -895 0
-432 -896 0
-433 -505 0
-434 -506 0
-435 -507 0
-436 -508 0
-433 -533 0
-434 -534 0
-435 -535 0
-436 -536 0
-433 -645 0
-434 -646 0
-435 -647 0
-436 -648 0
-433 -709 0
-434 -710 0
-435 -711 0
-436 -712 0
-433 -713 0
-434 -714 0
-435 -715 0
-436 -716 0
-433 -725 0
-434 -726 0
-435 -727 0
-436 -728 0
-433 -877 0
-434 -878 0
-435 -879 0
-436 -880 0
-433 -881 0
-434 -882 0
-435 -883 0
-436 -884 0
-437 -537 0
-438 -538 0
-439 -539 0
-440 -540 0
-437 -545 0
-438 -546 0
-439 -547 0
-440 -548 0
-437 -641 0
-438 -642 0
-439 -643 0
-440 -644 0
-437 -765 0
-438 -766 0
-439 -767 0
-440 -768 0
-437 -785 0
-438 -786 0
-439 -787 0
-440 -788 0
-437 -825 0
-438 -826 0
-439 -827 0
-440 -828 0
-437 -869 0
-438 -870 0
-439 -871 0
-440 -872 0
-437 -873 0
-438 -874 0
-439 -875 0
-440 -876 0
-441 -617 0
-442 -618 0
-443 -619 0
-444 -620 0
-441 -693 0
-442 -694 0
-443 -695 0
-444 -696 0
-445 -501 0
-446 -502 0
-447 -503 0
-448 -504 0
-445 -577 0
-446 -578 0
-447 -579 0
-448 -580 0
-445 -617 0
-446 -618 0
-447 -619 0
-448 -620 0
-445 -625 0
-446 -626 0
-447 -627 0
-448 -628 0
-445 -701 0
-446 -702 0
-447 -703 0
-448 -704 0
-449 -729 0
-450 -730 0
-451 -731 0
-452 -732 0
-449 -769 0
-450 -770 0
-451 -771 0
-452 -772 0
-453 -641 0
-454 -642 0
-455 -643 0
-456 -644 0
-453 -741 0
-454 -742 0
-455 -743 0
-456 -744 0
-457 -561 0
-458 -562 0
-459 -563 0
-460 -564 0
-457 -721 0
-458 -722 0
-459 -723 0
-460 -724 0
-461 -497 0
-462 -498 0
-463 -499 0
-464 -500 0
-461 -557 0
-462 -558 0
-463 -559 0
-464 -560 0
-461 -569 0
-462 -570 0
-463 -571 0
-464 -572 0
-465 -469 0
-466 -470 0
-467 -471 0
-468 -472 0
-465 -653 0
-466 -654 0
-467 -655 0
-468 -656 0
-465 -689 0
-466 -690 0
-467 -691 0
-468 -692 0
-465 -733 0
-466 -734 0
-467 -735 0
-468 -736 0
-465 -745 0
-466 -746 0
-467 -747 0
-468 -748 0
-465 -777 0
-466 -778 0
-467 -779 0
-468 -780 0
-465 -781 0
-466 -782 0
-467 -783 0
-468 -784 0
-465 -885 0
-466 -886 0
-467 -887 0
-468 -888 0
-465 -889 0
-466 -890 0
-467 -891 0
-468 -892 0
-469 -657 0
-470 -658 0
-471 -659 0
-472 -660 0
-469 -709 0
-470 -710 0
-471 -711 0
-472 -712 0
-469 -725 0
-470 -726 0
-471 -727 0
-472 -728 0
-469 -769 0
-470 -770 0
-471 -771 0
-472 -772 0
-473 -525 0
-474 -526 0
-475 -527 0
-476 -528 0
-473 -529 0
-474 -530 0
-475 -531 0
-476 -532 0
-477 -489 0
-478 -490 0
-479 -491 0
-480 -492 0
-477 -621 0
-478 -622 0
-479 -623 0
-480 -624 0
-477 -765 0
-478 -766 0
-479 -767 0
-480 -768 0
-481 -773 0
-482 -774 0
-483 -775 0
-484 -776 0
-481 -793 0
-482 -794 0
-483 -795 0
-484 -796 0
-481 -797 0
-482 -798 0
-483 -799 0
-484 -800 0
-485 -549 0
-486 -550 0
-487 -551 0
-488 -552 0
-485 -553 0
-486 -554 0
-487 -555 0
-488 -556 0
-489 -621 0
-490 -622 0
-491 -623 0
-492 -624 0
-489 -765 0
-490 -766 0
-491 -767 0
-492 -768 0
-493 -673 0
-494 -674 0
-495 -675 0
-496 -676 0
-493 -717 0
-494 -718 0
-495 -719 0
-496 -720 0
-497 -557 0
-498 -558 0
-499 -559 0
-500 -560 0
-497 -569 0
-498 -570 0
-499 -571 0
-500 -572 0
-501 -581 0
-502 -582 0
-503 -583 0
-504 -584 0
-501 -661 0
-502 -662 0
-503 -663 0
-504 -664 0
-501 -665 0
-502 -666 0
-503 -667 0
-504 -668 0
-501 -697 0
-502 -698 0
-503 -699 0
-504 -700 0
-501 -797 0
-502 -798 0
-503 -799 0
-504 -800 0
-501 -861 0
-502 -862 0
-503 -863 0
-504 -864 0
-501 -865 0
-502 -866 0
-503 -867 0
-504 -868 0
-505 -677 0
-506 -678 0
-507 -679 0
-508 -680 0
-505 -805 0
-506 -806 0
-507 -807 0
-508 -808 0
-509 -593 0
-510 -594 0
-511 -595 0
-512 -596 0
-509 -629 0
-510 -630 0
-511 -631 0
-512 -632 0
-509 -745 0
-510 -746 0
-511 -747 0
-512 -748 0
-513 -813 0
-514 -814 0
-515 -815 0
-516 -816 0
-513 -861 0
-514 -862 0
-515 -863 0
-516 -864 0
-517 -689 0
-518 -690 0
-519 -691 0
-520 -692 0
-517 -793 0
-518 -794 0
-519 -795 0
-520 -796 0
-517 -809 0
-518 -810 0
-519 -811 0
-520 -812 0
-521 -605 0
-522 -606 0
-523 -607 0
-524 -608 0
-521 -733 0
-522 -734 0
-523 -735 0
-524 -736 0
-521 -765 0
-522 -766 0
-523 -767 0
-524 -768 0
-525 -693 0
-526 -694 0
-527 -695 0
-528 -696 0
-525 -889 0
-526 -890 0
-527 -891 0
-528 -892 0
-529 -617 0
-530 -618 0
-531 -619 0
-532 -620 0
-529 -705 0
-530 -706 0
-531 -707 0
-532 -708 0
-529 -733 0
-530 -734 0
-531 -735 0
-532 -736 0
-533 -753 0
-534 -754 0
-535 -755 0
-536 -756 0
-533 -841 0
-534 -842 0
-535 -843 0
-536 -844 0
-537 -545 0
-538 -546 0
-539 -547 0
-540 -548 0
-537 -729 0
-538 -730 0
-539 -731 0
-540 -732 0
-541 -573 0
-542 -574 0
-543 -575 0
-544 -576 0
-541 -585 0
-542 -586 0
-543 -587 0
-544 -588 0
-545 -593 0
-546 -594 0
-547 -595 0
-548 -596 0
-545 -801 0
-546 -802 0
-547 -803 0
-548 -804 0
-549 -569 0
-550 -570 0
-551 -571 0
-552 -572 0
-549 -745 0
-550 -746 0
-551 -747 0
-552 -748 0
-549 -785 0
-550 -786 0
-551 -787 0
-552 -788 0
-553 -557 0
-554 -558 0
-555 -559 0
-556 -560 0
-553 -885 0
-554 -886 0
-555 -887 0
-556 -888 0
-557 -613 0
-558 -614 0
-559 -615 0
-560 -616 0
-557 -725 0
-558 -726 0
-559 -727 0
-560 -728 0
-561 -741 0
-562 -742 0
-563 -743 0
-564 -744 0
-565 -669 0
-566 -670 0
-567 -671 0
-568 -672 0
-565 -725 0
-566 -726 0
-567 -727 0
-568 -728 0
-565 -749 0
-566 -750 0
-567 -751 0
-568 -752 0
-569 -881 0
-570 -882 0
-571 -883 0
-572 -884 0
-573 -645 0
-574 -646 0
-575 -647 0
-576 -648 0
-573 -749 0
-574 -750 0
-575 -751 0
-576 -752 0
-573 -769 0
-574 -770 0
-575 -771 0
-576 -772 0
-577 -609 0
-578 -610 0
-579 -611 0
-580 -612 0
-577 -625 0
-578 -626 0
-579 -627 0
-580 -628 0
-577 -721 0
-578 -722 0
-579 -723 0
-580 -724 0
-581 -665 0
-582 -666 0
-583 -667 0
-584 -668 0
-581 -669 0
-582 -670 0
-583 -671 0
-584 -672 0
-581 -809 0
-582 -810 0
-583 -811 0
-584 -812 0
-581 -857 0
-582 -858 0
-583 -859 0
-584 -860 0
-581 -865 0
-582 -866 0
-583 -867 0
-584 -868 0
-585 -669 0
-586 -670 0
-587 -671 0
-588 -672 0
-585 -753 0
-586 -754 0
-587 -755 0
-588 -756 0
-589 -621 0
-590 -622 0
-591 -623 0
-592 -624 0
-589 -789 0
-590 -790 0
-591 -791 0
-592 -792 0
-589 -837 0
-590 -838 0
-591 -839 0
-592 -840 0
-589 -841 0
-590 -842 0
-591 -843 0
-592 -844 0
-593 -701 0
-594 -702 0
-595 -703 0
-596 -704 0
-593 -821 0
-594 -822 0
-595 -823 0
-596 -824 0
-597 -669 0
-598 -670 0
-599 -671 0
-600 -672 0
-597 -869 0
-598 -870 0
-599 -871 0
-600 -872 0
-601 -637 0
-602 -638 0
-603 -639 0
-604 -640 0
-601 -661 0
-602 -662 0
-603 -663 0
-604 -664 0
-601 -761 0
-602 -762 0
-603 -763 0
-604 -764 0
-605 -829 0
-606 -830 0
-607 -831 0
-608 -832 0
-605 -833 0
-606 -834 0
-607 -835 0
-608 -836 0
-609 -673 0
-610 -674 0
-611 -675 0
-612 -676 0
-609 -781 0
-610 -782 0
-611 -783 0
-612 -784 0
-613 -637 0
-614 -638 0
-615 -639 0
-616 -640 0
-613 -793 0
-614 -794 0
-615 -795 0
-616 -796 0
-613 -849 0
-614 -850 0
-615 -851 0
-616 -852 0
-613 -873 0
-614 -874 0
-615 -875 0
-616 -876 0
-617 -877 0
-618 -878 0
-619 -879 0
-620 -880 0
-621 -633 0
-622 -634 0
-623 -635 0
-624 -636 0
-621 -709 0
-622 -710 0
-623 -711 0
-624 -712 0
-625 -629 0
-626 -630 0
-627 -631 0
-628 -632 0
-625 -813 0
-626 -814 0
-627 -815 0
-628 -816 0
-629 -729 0
-630 -730 0
-631 -731 0
-632 -732 0
-637 -845 0
-638 -846 0
-639 -847 0
-640 -848 0
-637 -869 0
-638 -870 0
-639 -871 0
-640 -872 0
-641 -721 0
-642 -722 0
-643 -723 0
-644 -724 0
-645 -713 0
-646 -714 0
-647 -715 0
-648 -716 0
-645 -877 0
-646 -878 0
-647 -879 0
-648 -880 0
-645 -885 0
-646 -886 0
-647 -887 0
-648 -888 0
-645 -905 0
-646 -906 0
-647 -907 0
-648 -908 0
-649 -665 0
-650 -666 0
-651 -667 0
-652 -668 0
-649 -773 0
-650 -774 0
-651 -775 0
-652 -776 0
-649 -897 0
-650 -898 0
-651 -899 0
-652 -900 0
-653 -801 0
-654 -802 0
-655 -803 0
-656 -804 0
-653 -833 0
-654 -834 0
-655 -835 0
-656 -836 0
-657 -717 0
-658 -718 0
-659 -719 0
-660 -720 0
-657 -853 0
-658 -854 0
-659 -855 0
-660 -856 0
-661 -697 0
-662 -698 0
-663 -699 0
-664 -700 0
-661 -749 0
-662 -750 0
-663 -751 0
-664 -752 0
-661 -897 0
-662 -898 0
-663 -899 0
-664 -900 0
-665 -693 0
-666 -694 0
-667 -695 0
-668 -696 0
-665 -853 0
-666 -854 0
-667 -855 0
-668 -856 0
-665 -861 0
-666 -862 0
-667 -863 0
-668 -864 0
-665 -897 0
-666 -898 0
-667 -899 0
-668 -900 0
-673 -865 0
-674 -866 0
-675 -867 0
-676 -868 0
-677 -805 0
-678 -806 0
-679 -807 0
-680 -808 0
-677 -821 0
-678 -822 0
-679 -823 0
-680 -824 0
-681 -737 0
-682 -738 0
-683 -739 0
-684 -740 0
-681 -785 0
-682 -786 0
-683 -787 0
-684 -788 0
-681 -797 0
-682 -798 0
-683 -799 0
-684 -800 0
-681 -805 0
-682 -806 0
-683 -807 0
-684 -808 0
-685 -773 0
-686 -774 0
-687 -775 0
-688 -776 0
-685 -793 0
-686 -794 0
-687 -795 0
-688 -796 0
-689 -809 0
-690 -810 0
-691 -811 0
-692 -812 0
-693 -709 0
-694 -710 0
-695 -711 0
-696 -712 0
-697 -717 0
-698 -718 0
-699 -719 0
-700 -720 0
-697 -741 0
-698 -742 0
-699 -743 0
-700 -744 0
-701 -849 0
-702 -850 0
-703 -851 0
-704 -852 0
-705 -821 0
-706 -822 0
-707 -823 0
-708 -824 0
-705 -857 0
-706 -858 0
-707 -859 0
-708 -860 0
-705 -865 0
-706 -866 0
-707 -867 0
-708 -868 0
-705 -901 0
-706 -902 0
-707 -903 0
-708 -904 0
-709 -725 0
-710 -726 0
-711 -727 0
-712 -728 0
-709 -905 0
-710 -906 0
-711 -907 0
-712 -908 0
-713 -717 0
-714 -718 0
-715 -719 0
-716 -720 0
-713 -881 0
-714 -882 0
-715 -883 0
-716 -884 0
-713 -889 0
-714 -890 0
-715 -891 0
-716 -892 0
-721 -829 0
-722 -830 0
-723 -831 0
-724 -832 0
-729 -757 0
-730 -758 0
-731 -759 0
-732 -760 0
-729 -777 0
-730 -778 0
-731 -779 0
-732 -780 0
-733 -745 0
-734 -746 0
-735 -747 0
-736 -748 0
-733 -893 0
-734 -894 0
-735 -895 0
-736 -896 0
-737 -797 0
-738 -798 0
-739 -799 0
-740 -800 0
-741 -789 0
-742 -790 0
-743 -791 0
-744 -792 0
-757 -845 0
-758 -846 0
-759 -847 0
-760 -848 0
-761 -857 0
-762 -858 0
-763 -859 0
-764 -860 0
-769 -873 0
-770 -874 0
-771 -875 0
-772 -876 0
-773 -793 0
-774 -794 0
-775 -795 0
-776 -796 0
-777 -781 0
-778 -782 0
-779 -783 0
-780 -784 0
-777 -817 0
-778 -818 0
-779 -819 0
-780 -820 0
-777 -881 0
-778 -882 0
-779 -883 0
-780 -884 0
-777 -889 0
-778 -890 0
-779 -891 0
-780 -892 0
-777 -893 0
-778 -894 0
-779 -895 0
-780 -896 0
-777 -909 0
-778 -910 0
-779 -911 0
-780 -912 0
-781 -877 0
-782 -878 0
-783 -879 0
-784 -880 0
-781 -885 0
-782 -886 0
-783 -887 0
-784 -888 0
-785 -825 0
-786 -826 0
-787 -827 0
-788 -828 0
-785 -845 0
-786 -846 0
-787 -847 0
-788 -848 0
-785 -869 0
-786 -870 0
-787 -871 0
-788 -872 0
-789 -833 0
-790 -834 0
-791 -835 0
-792 -836 0
-805 -817 0
-806 -818 0
-807 -819 0
-808 -820 0
-813 -825 0
-814 -826 0
-815 -827 0
-816 -828 0
-817 -893 0
-818 -894 0
-819 -895 0
-820 -896 0
-817 -909 0
-818 -910 0
-819 -911 0
-820 -912 0
-821 -853 0
-822 -854 0
-823 -855 0
-824 -856 0
-821 -861 0
-822 -862 0
-823 -863 0
-824 -864 0
-825 -849 0
-826 -850 0
-827 -851 0
-828 -852 0
-825 -873 0
-826 -874 0
-827 -875 0
-828 -876 0
-829 -837 0
-830 -838 0
-831 -839 0
-832 -840 0
-829 -841 0
-830 -842 0
-831 -843 0
-832 -844 0
-837 -841 0
-838 -842 0
-839 -843 0
-840 -844 0
-845 -869 0
-846 -870 0
-847 -871 0
-848 -872 0
-849 -873 0
-850 -874 0
-851 -875 0
-852 -876 0
-853 -861 0
-854 -862 0
-855 -863 0
-856 -864 0
-857 -865 0
-858 -866 0
-859 -867 0
-860 -868 0
-877 -885 0
-878 -886 0
-879 -887 0
-880 -888 0
-881 -889 0
-882 -890 0
-883 -891 0
-884 -892 0
-897 -901 0
-898 -902 0
-899 -903 0
-900 -904 0
-905 -909 0
-906 -910 0
-907 -911 0
-908 -912 0
1 0
10 0
35 0
