p cnf 1104 4379
1 2 3 4 0
5 6 7 8 0
9 10 11 12 0
13 14 15 16 0
17 18 19 20 0
21 22 23 24 0
25 26 27 28 0
29 30 31 32 0
33 34 35 36 0
37 38 39 40 0
41 42 43 44 0
45 46 47 48 0
49 50 51 52 0
53 54 55 56 0
57 58 59 60 0
61 62 63 64 0
65 66 67 68 0
69 70 71 72 0
73 74 75 76 0
77 78 79 80 0
81 82 83 84 0
85 86 87 88 0
89 90 91 92 0
93 94 95 96 0
97 98 99 100 0
101 102 103 104 0
105 106 107 108 0
109 110 111 112 0
113 114 115 116 0
117 118 119 120 0
121 122 123 124 0
125 126 127 128 0
129 130 131 132 0
133 134 135 136 0
137 138 139 140 0
141 142 143 144 0
145 146 147 148 0
149 150 151 152 0
153 154 155 156 0
157 158 159 160 0
161 162 163 164 0
165 166 167 168 0
169 170 171 172 0
173 174 175 176 0
177 178 179 180 0
181 182 183 184 0
185 186 187 188 0
189 190 191 192 0
193 194 195 196 0
197 198 199 200 0
201 202 203 204 0
205 206 207 208 0
209 210 211 212 0
213 214 215 216 0
217 218 219 220 0
221 222 223 224 0
225 226 227 228 0
229 230 231 232 0
233 234 235 236 0
237 238 239 240 0
241 242 243 244 0
245 246 247 248 0
249 250 251 252 0
253 254 255 256 0
257 258 259 260 0
261 262 263 264 0
265 266 267 268 0
269 270 271 272 0
273 274 275 276 0
277 278 279 280 0
281 282 283 284 0
285 286 287 288 0
289 290 291 292 0
293 294 295 296 0
297 298 299 300 0
301 302 303 304 0
305 306 307 308 0
309 310 311 312 0
313 314 315 316 0
317 318 319 320 0
321 322 323 324 0
325 326 327 328 0
329 330 331 332 0
333 334 335 336 0
337 338 339 340 0
341 342 343 344 0
345 346 347 348 0
349 350 351 352 0
353 354 355 356 0
357 358 359 360 0
361 362 363 364 0
365 366 367 368 0
369 370 371 372 0
373 374 375 376 0
377 378 379 380 0
381 382 383 384 0
385 386 387 388 0
389 390 391 392 0
393 394 395 396 0
397 398 399 400 0
401 402 403 404 0
405 406 407 408 0
409 410 411 412 0
413 414 415 416 0
417 418 419 420 0
421 422 423 424 0
425 426 427 428 0
429 430 431 432 0
433 434 435 436 0
437 438 439 440 0
441 442 443 444 0
445 446 447 448 0
449 450 451 452 0
453 454 455 456 0
457 458 459 460 0
461 462 463 464 0
465 466 467 468 0
469 470 471 472 0
473 474 475 476 0
477 478 479 480 0
481 482 483 484 0
485 486 487 488 0
489 490 491 492 0
493 494 495 496 0
497 498 499 500 0
501 502 503 504 0
505 506 507 508 0
509 510 511 512 0
513 514 515 516 0
517 518 519 520 0
521 522 523 524 0
525 526 527 528 0
529 530 531 532 0
533 534 535 536 0
537 538 539 540 0
541 542 543 544 0
545 546 547 548 0
549 550 551 552 0
553 554 555 556 0
557 558 559 560 0
561 562 563 564 0
565 566 567 568 0
569 570 571 572 0
573 574 575 576 0
577 578 579 580 0
581 582 583 584 0
585 586 587 588 0
589 590 591 592 0
593 594 595 596 0
597 598 599 600 0
601 602 603 604 0
605 606 607 608 0
609 610 611 612 0
613 614 615 616 0
617 618 619 620 0
621 622 623 624 0
625 626 627 628 0
629 630 631 632 0
633 634 635 636 0
637 638 639 640 0
641 642 643 644 0
645 646 647 648 0
649 650 651 652 0
653 654 655 656 0
657 658 659 660 0
661 662 663 664 0
665 666 667 668 0
669 670 671 672 0
673 674 675 676 0
677 678 679 680 0
681 682 683 684 0
685 686 687 688 0
689 690 691 692 0
693 694 695 696 0
697 698 699 700 0
701 702 703 704 0
705 706 707 708 0
709 710 711 712 0
713 714 715 716 0
717 718 719 720 0
721 722 723 724 0
725 726 727 728 0
729 730 731 732 0
733 734 735 736 0
737 738 739 740 0
741 742 743 744 0
745 746 747 748 0
749 750 751 752 0
753 754 755 756 0
757 758 759 760 0
761 762 763 764 0
765 766 767 768 0
769 770 771 772 0
773 774 775 776 0
777 778 779 780 0
781 782 783 784 0
785 786 787 788 0
789 790 791 792 0
793 794 795 796 0
797 798 799 800 0
801 802 803 804 0
805 806 807 808 0
809 810 811 812 0
813 814 815 816 0
817 818 819 820 0
821 822 823 824 0
825 826 827 828 0
829 830 831 832 0
833 834 835 836 0
837 838 839 840 0
841 842 843 844 0
845 846 847 848 0
849 850 851 852 0
853 854 855 856 0
857 858 859 860 0
861 862 863 864 0
865 866 867 868 0
869 870 871 872 0
873 874 875 876 0
877 878 879 880 0
881 882 883 884 0
885 886 887 888 0
889 890 891 892 0
893 894 895 896 0
897 898 899 900 0
901 902 903 904 0
905 906 907 908 0
909 910 911 912 0
913 914 915 916 0
917 918 919 920 0
921 922 923 924 0
925 926 927 928 0
929 930 931 932 0
933 934 935 936 0
937 938 939 940 0
941 942 943 944 0
945 946 947 948 0
949 950 951 952 0
953 954 955 956 0
957 958 959 960 0
961 962 963 964 0
965 966 967 968 0
969 970 971 972 0
973 974 975 976 0
977 978 979 980 0
981 982 983 984 0
985 986 987 988 0
989 990 991 992 0
993 994 995 996 0
997 998 999 1000 0
1001 1002 1003 1004 0
1005 1006 1007 1008 0
1009 1010 1011 1012 0
1013 1014 1015 1016 0
1017 1018 1019 1020 0
1021 1022 1023 1024 0
1025 1026 1027 1028 0
1029 1030 1031 1032 0
1033 1034 1035 1036 0
1037 1038 1039 1040 0
1041 1042 1043 1044 0
1045 1046 1047 1048 0
1049 1050 1051 1052 0
1053 1054 1055 1056 0
1057 1058 1059 1060 0
1061 1062 1063 1064 0
1065 1066 1067 1068 0
1069 1070 1071 1072 0
1073 1074 1075 1076 0
1077 1078 1079 1080 0
1081 1082 1083 1084 0
1085 1086 1087 1088 0
1089 1090 1091 1092 0
1093 1094 1095 1096 0
1097 1098 1099 1100 0
1101 1102 1103 1104 0
-1 -5 0
-2 -6 0
-3 -7 0
-4 -8 0
-1 -9 0
-2 -10 0
-3 -11 0
-4 -12 0
-1 -17 0
-2 -18 0
-3 -19 0
-4 -20 0
-1 -21 0
-2 -22 0
-3 -23 0
-4 -24 0
-1 -37 0
-2 -38 0
-3 -39 0
-4 -40 0
-1 -41 0
-2 -42 0
-3 -43 0
-4 -44 0
-1 -73 0
-2 -74 0
-3 -75 0
-4 -76 0
-1 -77 0
-2 -78 0
-3 -79 0
-4 -80 0
-1 -249 0
-2 -250 0
-3 -251 0
-4 -252 0
-1 -325 0
-2 -326 0
-3 -327 0
-4 -328 0
-1 -397 0
-2 -398 0
-3 -399 0
-4 -400 0
-1 -401 0
-2 -402 0
-3 -403 0
-4 -404 0
-1 -609 0
-2 -610 0
-3 -611 0
-4 -612 0
-1 -613 0
-2 -614 0
-3 -615 0
-4 -616 0
-1 -617 0
-2 -618 0
-3 -619 0
-4 -620 0
-1 -849 0
-2 -850 0
-3 -851 0
-4 -852 0
-1 -853 0
-2 -854 0
-3 -855 0
-4 -856 0
-1 -1033 0
-2 -1034 0
-3 -1035 0
-4 -1036 0
-5 -9 0
-6 -10 0
-7 -11 0
-8 -12 0
-5 -13 0
-6 -14 0
-7 -15 0
-8 -16 0
-5 -29 0
-6 -30 0
-7 -31 0
-8 -32 0
-5 -73 0
-6 -74 0
-7 -75 0
-8 -76 0
-5 -81 0
-6 -82 0
-7 -83 0
-8 -84 0
-5 -105 0
-6 -106 0
-7 -107 0
-8 -108 0
-5 -109 0
-6 -110 0
-7 -111 0
-8 -112 0
-5 -161 0
-6 -162 0
-7 -163 0
-8 -164 0
-5 -253 0
-6 -254 0
-7 -255 0
-8 -256 0
-5 -257 0
-6 -258 0
-7 -259 0
-8 -260 0
-5 -261 0
-6 -262 0
-7 -263 0
-8 -264 0
-5 -361 0
-6 -362 0
-7 -363 0
-8 -364 0
-5 -405 0
-6 -406 0
-7 -407 0
-8 -408 0
-5 -409 0
-6 -410 0
-7 -411 0
-8 -412 0
-5 -413 0
-6 -414 0
-7 -415 0
-8 -416 0
-5 -417 0
-6 -418 0
-7 -419 0
-8 -420 0
-5 -421 0
-6 -422 0
-7 -423 0
-8 -424 0
-5 -621 0
-6 -622 0
-7 -623 0
-8 -624 0
-9 -13 0
-10 -14 0
-11 -15 0
-12 -16 0
-9 -33 0
-10 -34 0
-11 -35 0
-12 -36 0
-9 -37 0
-10 -38 0
-11 -39 0
-12 -40 0
-9 -45 0
-10 -46 0
-11 -47 0
-12 -48 0
-9 -49 0
-10 -50 0
-11 -51 0
-12 -52 0
-9 -53 0
-10 -54 0
-11 -55 0
-12 -56 0
-9 -85 0
-10 -86 0
-11 -87 0
-12 -88 0
-9 -113 0
-10 -114 0
-11 -115 0
-12 -116 0
-9 -165 0
-10 -166 0
-11 -167 0
-12 -168 0
-9 -233 0
-10 -234 0
-11 -235 0
-12 -236 0
-9 -425 0
-10 -426 0
-11 -427 0
-12 -428 0
-9 -429 0
-10 -430 0
-11 -431 0
-12 -432 0
-9 -433 0
-10 -434 0
-11 -435 0
-12 -436 0
-9 -585 0
-10 -586 0
-11 -587 0
-12 -588 0
-9 -625 0
-10 -626 0
-11 -627 0
-12 -628 0
-9 -629 0
-10 -630 0
-11 -631 0
-12 -632 0
-9 -633 0
-10 -634 0
-11 -635 0
-12 -636 0
-9 -857 0
-10 -858 0
-11 -859 0
-12 -860 0
-9 -861 0
-10 -862 0
-11 -863 0
-12 -864 0
-9 -865 0
-10 -866 0
-11 -867 0
-12 -868 0
-9 -869 0
-10 -870 0
-11 -871 0
-12 -872 0
-9 -1037 0
-10 -1038 0
-11 -1039 0
-12 -1040 0
-13 -25 0
-14 -26 0
-15 -27 0
-16 -28 0
-13 -29 0
-14 -30 0
-15 -31 0
-16 -32 0
-13 -45 0
-14 -46 0
-15 -47 0
-16 -48 0
-13 -57 0
-14 -58 0
-15 -59 0
-16 -60 0
-13 -61 0
-14 -62 0
-15 -63 0
-16 -64 0
-13 -89 0
-14 -90 0
-15 -91 0
-16 -92 0
-13 -117 0
-14 -118 0
-15 -119 0
-16 -120 0
-13 -121 0
-14 -122 0
-15 -123 0
-16 -124 0
-13 -125 0
-14 -126 0
-15 -127 0
-16 -128 0
-13 -265 0
-14 -266 0
-15 -267 0
-16 -268 0
-13 -637 0
-14 -638 0
-15 -639 0
-16 -640 0
-13 -641 0
-14 -642 0
-15 -643 0
-16 -644 0
-13 -873 0
-14 -874 0
-15 -875 0
-16 -876 0
-13 -877 0
-14 -878 0
-15 -879 0
-16 -880 0
-13 -881 0
-14 -882 0
-15 -883 0
-16 -884 0
-13 -885 0
-14 -886 0
-15 -887 0
-16 -888 0
-17 -21 0
-18 -22 0
-19 -23 0
-20 -24 0
-17 -25 0
-18 -26 0
-19 -27 0
-20 -28 0
-17 -29 0
-18 -30 0
-19 -31 0
-20 -32 0
-17 -49 0
-18 -50 0
-19 -51 0
-20 -52 0
-17 -65 0
-18 -66 0
-19 -67 0
-20 -68 0
-17 -77 0
-18 -78 0
-19 -79 0
-20 -80 0
-17 -93 0
-18 -94 0
-19 -95 0
-20 -96 0
-17 -97 0
-18 -98 0
-19 -99 0
-20 -100 0
-17 -129 0
-18 -130 0
-19 -131 0
-20 -132 0
-17 -169 0
-18 -170 0
-19 -171 0
-20 -172 0
-17 -173 0
-18 -174 0
-19 -175 0
-20 -176 0
-17 -437 0
-18 -438 0
-19 -439 0
-20 -440 0
-17 -589 0
-18 -590 0
-19 -591 0
-20 -592 0
-21 -25 0
-22 -26 0
-23 -27 0
-24 -28 0
-21 -33 0
-22 -34 0
-23 -35 0
-24 -36 0
-21 -41 0
-22 -42 0
-23 -43 0
-24 -44 0
-21 -69 0
-22 -70 0
-23 -71 0
-24 -72 0
-21 -133 0
-22 -134 0
-23 -135 0
-24 -136 0
-21 -137 0
-22 -138 0
-23 -139 0
-24 -140 0
-21 -177 0
-22 -178 0
-23 -179 0
-24 -180 0
-21 -269 0
-22 -270 0
-23 -271 0
-24 -272 0
-21 -273 0
-22 -274 0
-23 -275 0
-24 -276 0
-21 -357 0
-22 -358 0
-23 -359 0
-24 -360 0
-21 -441 0
-22 -442 0
-23 -443 0
-24 -444 0
-21 -445 0
-22 -446 0
-23 -447 0
-24 -448 0
-21 -449 0
-22 -450 0
-23 -451 0
-24 -452 0
-25 -33 0
-26 -34 0
-27 -35 0
-28 -36 0
-25 -57 0
-26 -58 0
-27 -59 0
-28 -60 0
-25 -89 0
-26 -90 0
-27 -91 0
-28 -92 0
-25 -93 0
-26 -94 0
-27 -95 0
-28 -96 0
-25 -101 0
-26 -102 0
-27 -103 0
-28 -104 0
-25 -141 0
-26 -142 0
-27 -143 0
-28 -144 0
-25 -145 0
-26 -146 0
-27 -147 0
-28 -148 0
-25 -149 0
-26 -150 0
-27 -151 0
-28 -152 0
-25 -277 0
-26 -278 0
-27 -279 0
-28 -280 0
-25 -385 0
-26 -386 0
-27 -387 0
-28 -388 0
-25 -453 0
-26 -454 0
-27 -455 0
-28 -456 0
-25 -645 0
-26 -646 0
-27 -647 0
-28 -648 0
-29 -61 0
-30 -62 0
-31 -63 0
-32 -64 0
-29 -65 0
-30 -66 0
-31 -67 0
-32 -68 0
-29 -81 0
-30 -82 0
-31 -83 0
-32 -84 0
-29 -97 0
-30 -98 0
-31 -99 0
-32 -100 0
-29 -181 0
-30 -182 0
-31 -183 0
-32 -184 0
-29 -309 0
-30 -310 0
-31 -311 0
-32 -312 0
-29 -457 0
-30 -458 0
-31 -459 0
-32 -460 0
-29 -649 0
-30 -650 0
-31 -651 0
-32 -652 0
-29 -653 0
-30 -654 0
-31 -655 0
-32 -656 0
-29 -889 0
-30 -890 0
-31 -891 0
-32 -892 0
-33 -53 0
-34 -54 0
-35 -55 0
-36 -56 0
-33 -69 0
-34 -70 0
-35 -71 0
-36 -72 0
-33 -85 0
-34 -86 0
-35 -87 0
-36 -88 0
-33 -101 0
-34 -102 0
-35 -103 0
-36 -104 0
-33 -209 0
-34 -210 0
-35 -211 0
-36 -212 0
-33 -281 0
-34 -282 0
-35 -283 0
-36 -284 0
-33 -285 0
-34 -286 0
-35 -287 0
-36 -288 0
-33 -461 0
-34 -462 0
-35 -463 0
-36 -464 0
-33 -465 0
-34 -466 0
-35 -467 0
-36 -468 0
-33 -545 0
-34 -546 0
-35 -547 0
-36 -548 0
-33 -657 0
-34 -658 0
-35 -659 0
-36 -660 0
-33 -661 0
-34 -662 0
-35 -663 0
-36 -664 0
-33 -833 0
-34 -834 0
-35 -835 0
-36 -836 0
-33 -893 0
-34 -894 0
-35 -895 0
-36 -896 0
-33 -1013 0
-34 -1014 0
-35 -1015 0
-36 -1016 0
-37 -53 0
-38 -54 0
-39 -55 0
-40 -56 0
-37 -57 0
-38 -58 0
-39 -59 0
-40 -60 0
-37 -137 0
-38 -138 0
-39 -139 0
-40 -140 0
-37 -149 0
-38 -150 0
-39 -151 0
-40 -152 0
-37 -185 0
-38 -186 0
-39 -187 0
-40 -188 0
-37 -189 0
-38 -190 0
-39 -191 0
-40 -192 0
-37 -249 0
-38 -250 0
-39 -251 0
-40 -252 0
-37 -289 0
-38 -290 0
-39 -291 0
-40 -292 0
-37 -293 0
-38 -294 0
-39 -295 0
-40 -296 0
-37 -469 0
-38 -470 0
-39 -471 0
-40 -472 0
-37 -593 0
-38 -594 0
-39 -595 0
-40 -596 0
-37 -597 0
-38 -598 0
-39 -599 0
-40 -600 0
-37 -665 0
-38 -666 0
-39 -667 0
-40 -668 0
-37 -669 0
-38 -670 0
-39 -671 0
-40 -672 0
-37 -837 0
-38 -838 0
-39 -839 0
-40 -840 0
-37 -897 0
-38 -898 0
-39 -899 0
-40 -900 0
-41 -133 0
-42 -134 0
-43 -135 0
-44 -136 0
-41 -189 0
-42 -190 0
-43 -191 0
-44 -192 0
-41 -389 0
-42 -390 0
-43 -391 0
-44 -392 0
-45 -141 0
-46 -142 0
-47 -143 0
-48 -144 0
-45 -165 0
-46 -166 0
-47 -167 0
-48 -168 0
-45 -193 0
-46 -194 0
-47 -195 0
-48 -196 0
-45 -265 0
-46 -266 0
-47 -267 0
-48 -268 0
-45 -297 0
-46 -298 0
-47 -299 0
-48 -300 0
-45 -457 0
-46 -458 0
-47 -459 0
-48 -460 0
-45 -473 0
-46 -474 0
-47 -475 0
-48 -476 0
-45 -477 0
-46 -478 0
-47 -479 0
-48 -480 0
-45 -481 0
-46 -482 0
-47 -483 0
-48 -484 0
-45 -609 0
-46 -610 0
-47 -611 0
-48 -612 0
-45 -673 0
-46 -674 0
-47 -675 0
-48 -676 0
-45 -677 0
-46 -678 0
-47 -679 0
-48 -680 0
-45 -681 0
-46 -682 0
-47 -683 0
-48 -684 0
-45 -685 0
-46 -686 0
-47 -687 0
-48 -688 0
-45 -825 0
-46 -826 0
-47 -827 0
-48 -828 0
-45 -901 0
-46 -902 0
-47 -903 0
-48 -904 0
-49 -65 0
-50 -66 0
-51 -67 0
-52 -68 0
-49 -85 0
-50 -86 0
-51 -87 0
-52 -88 0
-49 -113 0
-50 -114 0
-51 -115 0
-52 -116 0
-49 -125 0
-50 -126 0
-51 -127 0
-52 -128 0
-49 -129 0
-50 -130 0
-51 -131 0
-52 -132 0
-49 -145 0
-50 -146 0
-51 -147 0
-52 -148 0
-49 -193 0
-50 -194 0
-51 -195 0
-52 -196 0
-49 -197 0
-50 -198 0
-51 -199 0
-52 -200 0
-49 -201 0
-50 -202 0
-51 -203 0
-52 -204 0
-49 -237 0
-50 -238 0
-51 -239 0
-52 -240 0
-49 -689 0
-50 -690 0
-51 -691 0
-52 -692 0
-49 -693 0
-50 -694 0
-51 -695 0
-52 -696 0
-49 -1017 0
-50 -1018 0
-51 -1019 0
-52 -1020 0
-53 -129 0
-54 -130 0
-55 -131 0
-56 -132 0
-53 -133 0
-54 -134 0
-55 -135 0
-56 -136 0
-53 -169 0
-54 -170 0
-55 -171 0
-56 -172 0
-53 -205 0
-54 -206 0
-55 -207 0
-56 -208 0
-53 -209 0
-54 -210 0
-55 -211 0
-56 -212 0
-53 -301 0
-54 -302 0
-55 -303 0
-56 -304 0
-53 -305 0
-54 -306 0
-55 -307 0
-56 -308 0
-53 -405 0
-54 -406 0
-55 -407 0
-56 -408 0
-53 -481 0
-54 -482 0
-55 -483 0
-56 -484 0
-53 -665 0
-54 -666 0
-55 -667 0
-56 -668 0
-53 -697 0
-54 -698 0
-55 -699 0
-56 -700 0
-53 -701 0
-54 -702 0
-55 -703 0
-56 -704 0
-53 -705 0
-54 -706 0
-55 -707 0
-56 -708 0
-53 -905 0
-54 -906 0
-55 -907 0
-56 -908 0
-53 -909 0
-54 -910 0
-55 -911 0
-56 -912 0
-53 -1093 0
-54 -1094 0
-55 -1095 0
-56 -1096 0
-57 -77 0
-58 -78 0
-59 -79 0
-60 -80 0
-57 -117 0
-58 -118 0
-59 -119 0
-60 -120 0
-57 -149 0
-58 -150 0
-59 -151 0
-60 -152 0
-57 -153 0
-58 -154 0
-59 -155 0
-60 -156 0
-57 -157 0
-58 -158 0
-59 -159 0
-60 -160 0
-57 -213 0
-58 -214 0
-59 -215 0
-60 -216 0
-57 -225 0
-58 -226 0
-59 -227 0
-60 -228 0
-57 -241 0
-58 -242 0
-59 -243 0
-60 -244 0
-57 -253 0
-58 -254 0
-59 -255 0
-60 -256 0
-57 -273 0
-58 -274 0
-59 -275 0
-60 -276 0
-57 -485 0
-58 -486 0
-59 -487 0
-60 -488 0
-57 -489 0
-58 -490 0
-59 -491 0
-60 -492 0
-57 -593 0
-58 -594 0
-59 -595 0
-60 -596 0
-61 -113 0
-62 -114 0
-63 -115 0
-64 -116 0
-61 -121 0
-62 -122 0
-63 -123 0
-64 -124 0
-61 -153 0
-62 -154 0
-63 -155 0
-64 -156 0
-61 -197 0
-62 -198 0
-63 -199 0
-64 -200 0
-61 -229 0
-62 -230 0
-63 -231 0
-64 -232 0
-61 -309 0
-62 -310 0
-63 -311 0
-64 -312 0
-61 -709 0
-62 -710 0
-63 -711 0
-64 -712 0
-65 -125 0
-66 -126 0
-67 -127 0
-68 -128 0
-65 -313 0
-66 -314 0
-67 -315 0
-68 -316 0
-65 -317 0
-66 -318 0
-67 -319 0
-68 -320 0
-65 -553 0
-66 -554 0
-67 -555 0
-68 -556 0
-69 -137 0
-70 -138 0
-71 -139 0
-72 -140 0
-69 -157 0
-70 -158 0
-71 -159 0
-72 -160 0
-69 -205 0
-70 -206 0
-71 -207 0
-72 -208 0
-69 -213 0
-70 -214 0
-71 -215 0
-72 -216 0
-69 -217 0
-70 -218 0
-71 -219 0
-72 -220 0
-73 -105 0
-74 -106 0
-75 -107 0
-76 -108 0
-73 -185 0
-74 -186 0
-75 -187 0
-76 -188 0
-73 -245 0
-74 -246 0
-75 -247 0
-76 -248 0
-73 -321 0
-74 -322 0
-75 -323 0
-76 -324 0
-73 -353 0
-74 -354 0
-75 -355 0
-76 -356 0
-73 -617 0
-74 -618 0
-75 -619 0
-76 -620 0
-73 -713 0
-74 -714 0
-75 -715 0
-76 -716 0
-73 -877 0
-74 -878 0
-75 -879 0
-76 -880 0
-73 -913 0
-74 -914 0
-75 -915 0
-76 -916 0
-73 -1041 0
-74 -1042 0
-75 -1043 0
-76 -1044 0
-77 -97 0
-78 -98 0
-79 -99 0
-80 -100 0
-77 -109 0
-78 -110 0
-79 -111 0
-80 -112 0
-77 -117 0
-78 -118 0
-79 -119 0
-80 -120 0
-77 -245 0
-78 -246 0
-79 -247 0
-80 -248 0
-77 -325 0
-78 -326 0
-79 -327 0
-80 -328 0
-77 -489 0
-78 -490 0
-79 -491 0
-80 -492 0
-77 -493 0
-78 -494 0
-79 -495 0
-80 -496 0
-81 -109 0
-82 -110 0
-83 -111 0
-84 -112 0
-81 -153 0
-82 -154 0
-83 -155 0
-84 -156 0
-81 -221 0
-82 -222 0
-83 -223 0
-84 -224 0
-81 -225 0
-82 -226 0
-83 -227 0
-84 -228 0
-81 -857 0
-82 -858 0
-83 -859 0
-84 -860 0
-81 -889 0
-82 -890 0
-83 -891 0
-84 -892 0
-81 -913 0
-82 -914 0
-83 -915 0
-84 -916 0
-85 -145 0
-86 -146 0
-87 -147 0
-88 -148 0
-85 -261 0
-86 -262 0
-87 -263 0
-88 -264 0
-85 -289 0
-86 -290 0
-87 -291 0
-88 -292 0
-85 -313 0
-86 -314 0
-87 -315 0
-88 -316 0
-85 -329 0
-86 -330 0
-87 -331 0
-88 -332 0
-85 -333 0
-86 -334 0
-87 -335 0
-88 -336 0
-85 -337 0
-86 -338 0
-87 -339 0
-88 -340 0
-85 -461 0
-86 -462 0
-87 -463 0
-88 -464 0
-85 -497 0
-86 -498 0
-87 -499 0
-88 -500 0
-85 -501 0
-86 -502 0
-87 -503 0
-88 -504 0
-85 -601 0
-86 -602 0
-87 -603 0
-88 -604 0
-85 -685 0
-86 -686 0
-87 -687 0
-88 -688 0
-85 -717 0
-86 -718 0
-87 -719 0
-88 -720 0
-85 -917 0
-86 -918 0
-87 -919 0
-88 -920 0
-85 -1021 0
-86 -1022 0
-87 -1023 0
-88 -1024 0
-89 -125 0
-90 -126 0
-91 -127 0
-92 -128 0
-89 -145 0
-90 -146 0
-91 -147 0
-92 -148 0
-89 -161 0
-90 -162 0
-91 -163 0
-92 -164 0
-89 -177 0
-90 -178 0
-91 -179 0
-92 -180 0
-89 -229 0
-90 -230 0
-91 -231 0
-92 -232 0
-89 -341 0
-90 -342 0
-91 -343 0
-92 -344 0
-89 -381 0
-90 -382 0
-91 -383 0
-92 -384 0
-89 -473 0
-90 -474 0
-91 -475 0
-92 -476 0
-89 -505 0
-90 -506 0
-91 -507 0
-92 -508 0
-89 -509 0
-90 -510 0
-91 -511 0
-92 -512 0
-93 -121 0
-94 -122 0
-95 -123 0
-96 -124 0
-93 -173 0
-94 -174 0
-95 -175 0
-96 -176 0
-93 -201 0
-94 -202 0
-95 -203 0
-96 -204 0
-93 -277 0
-94 -278 0
-95 -279 0
-96 -280 0
-93 -373 0
-94 -374 0
-95 -375 0
-96 -376 0
-97 -105 0
-98 -106 0
-99 -107 0
-100 -108 0
-97 -113 0
-98 -114 0
-99 -115 0
-100 -116 0
-97 -181 0
-98 -182 0
-99 -183 0
-100 -184 0
-97 -221 0
-98 -222 0
-99 -223 0
-100 -224 0
-97 -233 0
-98 -234 0
-99 -235 0
-100 -236 0
-97 -345 0
-98 -346 0
-99 -347 0
-100 -348 0
-97 -349 0
-98 -350 0
-99 -351 0
-100 -352 0
-101 -129 0
-102 -130 0
-103 -131 0
-104 -132 0
-101 -141 0
-102 -142 0
-103 -143 0
-104 -144 0
-101 -157 0
-102 -158 0
-103 -159 0
-104 -160 0
-101 -237 0
-102 -238 0
-103 -239 0
-104 -240 0
-101 -281 0
-102 -282 0
-103 -283 0
-104 -284 0
-101 -337 0
-102 -338 0
-103 -339 0
-104 -340 0
-101 -393 0
-102 -394 0
-103 -395 0
-104 -396 0
-101 -721 0
-102 -722 0
-103 -723 0
-104 -724 0
-101 -781 0
-102 -782 0
-103 -783 0
-104 -784 0
-101 -841 0
-102 -842 0
-103 -843 0
-104 -844 0
-105 -233 0
-106 -234 0
-107 -235 0
-108 -236 0
-105 -245 0
-106 -246 0
-107 -247 0
-108 -248 0
-105 -345 0
-106 -346 0
-107 -347 0
-108 -348 0
-105 -409 0
-106 -410 0
-107 -411 0
-108 -412 0
-105 -513 0
-106 -514 0
-107 -515 0
-108 -516 0
-105 -921 0
-106 -922 0
-107 -923 0
-108 -924 0
-105 -981 0
-106 -982 0
-107 -983 0
-108 -984 0
-109 -117 0
-110 -118 0
-111 -119 0
-112 -120 0
-109 -221 0
-110 -222 0
-111 -223 0
-112 -224 0
-109 -413 0
-110 -414 0
-111 -415 0
-112 -416 0
-109 -725 0
-110 -726 0
-111 -727 0
-112 -728 0
-109 -801 0
-110 -802 0
-111 -803 0
-112 -804 0
-113 -185 0
-114 -186 0
-115 -187 0
-116 -188 0
-113 -197 0
-114 -198 0
-115 -199 0
-116 -200 0
-113 -233 0
-114 -234 0
-115 -235 0
-116 -236 0
-113 -285 0
-114 -286 0
-115 -287 0
-116 -288 0
-113 -353 0
-114 -354 0
-115 -355 0
-116 -356 0
-113 -421 0
-114 -422 0
-115 -423 0
-116 -424 0
-113 -517 0
-114 -518 0
-115 -519 0
-116 -520 0
-113 -709 0
-114 -710 0
-115 -711 0
-116 -712 0
-113 -729 0
-114 -730 0
-115 -731 0
-116 -732 0
-113 -733 0
-114 -734 0
-115 -735 0
-116 -736 0
-117 -173 0
-118 -174 0
-119 -175 0
-120 -176 0
-117 -177 0
-118 -178 0
-119 -179 0
-120 -180 0
-117 -181 0
-118 -182 0
-119 -183 0
-120 -184 0
-117 -357 0
-118 -358 0
-119 -359 0
-120 -360 0
-121 -125 0
-122 -126 0
-123 -127 0
-124 -128 0
-121 -173 0
-122 -174 0
-123 -175 0
-124 -176 0
-121 -297 0
-122 -298 0
-123 -299 0
-124 -300 0
-121 -361 0
-122 -362 0
-123 -363 0
-124 -364 0
-125 -201 0
-126 -202 0
-127 -203 0
-128 -204 0
-125 -505 0
-126 -506 0
-127 -507 0
-128 -508 0
-129 -169 0
-130 -170 0
-131 -171 0
-132 -172 0
-129 -237 0
-130 -238 0
-131 -239 0
-132 -240 0
-129 -441 0
-130 -442 0
-131 -443 0
-132 -444 0
-129 -521 0
-130 -522 0
-131 -523 0
-132 -524 0
-129 -601 0
-130 -602 0
-131 -603 0
-132 -604 0
-129 -697 0
-130 -698 0
-131 -699 0
-132 -700 0
-129 -841 0
-130 -842 0
-131 -843 0
-132 -844 0
-133 -169 0
-134 -170 0
-135 -171 0
-136 -172 0
-133 -189 0
-134 -190 0
-135 -191 0
-136 -192 0
-133 -301 0
-134 -302 0
-135 -303 0
-136 -304 0
-133 -449 0
-134 -450 0
-135 -451 0
-136 -452 0
-133 -605 0
-134 -606 0
-135 -607 0
-136 -608 0
-137 -149 0
-138 -150 0
-139 -151 0
-140 -152 0
-137 -205 0
-138 -206 0
-139 -207 0
-140 -208 0
-137 -293 0
-138 -294 0
-139 -295 0
-140 -296 0
-137 -365 0
-138 -366 0
-139 -367 0
-140 -368 0
-137 -445 0
-138 -446 0
-139 -447 0
-140 -448 0
-137 -737 0
-138 -738 0
-139 -739 0
-140 -740 0
-141 -145 0
-142 -146 0
-143 -147 0
-144 -148 0
-141 -165 0
-142 -166 0
-143 -167 0
-144 -168 0
-141 -269 0
-142 -270 0
-143 -271 0
-144 -272 0
-141 -329 0
-142 -330 0
-143 -331 0
-144 -332 0
-141 -369 0
-142 -370 0
-143 -371 0
-144 -372 0
-141 -373 0
-142 -374 0
-143 -375 0
-144 -376 0
-141 -681 0
-142 -682 0
-143 -683 0
-144 -684 0
-141 -741 0
-142 -742 0
-143 -743 0
-144 -744 0
-141 -745 0
-142 -746 0
-143 -747 0
-144 -748 0
-141 -797 0
-142 -798 0
-143 -799 0
-144 -800 0
-141 -925 0
-142 -926 0
-143 -927 0
-144 -928 0
-141 -929 0
-142 -930 0
-143 -931 0
-144 -932 0
-145 -193 0
-146 -194 0
-147 -195 0
-148 -196 0
-145 -241 0
-146 -242 0
-147 -243 0
-148 -244 0
-145 -369 0
-146 -370 0
-147 -371 0
-148 -372 0
-145 -497 0
-146 -498 0
-147 -499 0
-148 -500 0
-145 -517 0
-146 -518 0
-147 -519 0
-148 -520 0
-145 -525 0
-146 -526 0
-147 -527 0
-148 -528 0
-145 -749 0
-146 -750 0
-147 -751 0
-148 -752 0
-145 -933 0
-146 -934 0
-147 -935 0
-148 -936 0
-145 -1025 0
-146 -1026 0
-147 -1027 0
-148 -1028 0
-149 -161 0
-150 -162 0
-151 -163 0
-152 -164 0
-149 -165 0
-150 -166 0
-151 -167 0
-152 -168 0
-149 -209 0
-150 -210 0
-151 -211 0
-152 -212 0
-149 -217 0
-150 -218 0
-151 -219 0
-152 -220 0
-149 -257 0
-150 -258 0
-151 -259 0
-152 -260 0
-149 -365 0
-150 -366 0
-151 -367 0
-152 -368 0
-149 -377 0
-150 -378 0
-151 -379 0
-152 -380 0
-149 -385 0
-150 -386 0
-151 -387 0
-152 -388 0
-149 -549 0
-150 -550 0
-151 -551 0
-152 -552 0
-149 -937 0
-150 -938 0
-151 -939 0
-152 -940 0
-153 -161 0
-154 -162 0
-155 -163 0
-156 -164 0
-153 -225 0
-154 -226 0
-155 -227 0
-156 -228 0
-153 -229 0
-154 -230 0
-155 -231 0
-156 -232 0
-157 -177 0
-158 -178 0
-159 -179 0
-160 -180 0
-157 -213 0
-158 -214 0
-159 -215 0
-160 -216 0
-157 -217 0
-158 -218 0
-159 -219 0
-160 -220 0
-157 -241 0
-158 -242 0
-159 -243 0
-160 -244 0
-157 -393 0
-158 -394 0
-159 -395 0
-160 -396 0
-161 -165 0
-162 -166 0
-163 -167 0
-164 -168 0
-161 -229 0
-162 -230 0
-163 -231 0
-164 -232 0
-161 -257 0
-162 -258 0
-163 -259 0
-164 -260 0
-161 -297 0
-162 -298 0
-163 -299 0
-164 -300 0
-161 -361 0
-162 -362 0
-163 -363 0
-164 -364 0
-161 -381 0
-162 -382 0
-163 -383 0
-164 -384 0
-161 -737 0
-162 -738 0
-163 -739 0
-164 -740 0
-161 -941 0
-162 -942 0
-163 -943 0
-164 -944 0
-165 -281 0
-166 -282 0
-167 -283 0
-168 -284 0
-165 -329 0
-166 -330 0
-167 -331 0
-168 -332 0
-165 -377 0
-166 -378 0
-167 -379 0
-168 -380 0
-165 -381 0
-166 -382 0
-167 -383 0
-168 -384 0
-165 -425 0
-166 -426 0
-167 -427 0
-168 -428 0
-165 -529 0
-166 -530 0
-167 -531 0
-168 -532 0
-165 -753 0
-166 -754 0
-167 -755 0
-168 -756 0
-165 -1045 0
-166 -1046 0
-167 -1047 0
-168 -1048 0
-165 -1049 0
-166 -1050 0
-167 -1051 0
-168 -1052 0
-165 -1053 0
-166 -1054 0
-167 -1055 0
-168 -1056 0
-169 -233 0
-170 -234 0
-171 -235 0
-172 -236 0
-169 -249 0
-170 -250 0
-171 -251 0
-172 -252 0
-169 -313 0
-170 -314 0
-171 -315 0
-172 -316 0
-169 -333 0
-170 -334 0
-171 -335 0
-172 -336 0
-169 -389 0
-170 -390 0
-171 -391 0
-172 -392 0
-169 -437 0
-170 -438 0
-171 -439 0
-172 -440 0
-169 -533 0
-170 -534 0
-171 -535 0
-172 -536 0
-169 -537 0
-170 -538 0
-171 -539 0
-172 -540 0
-169 -605 0
-170 -606 0
-171 -607 0
-172 -608 0
-173 -177 0
-174 -178 0
-175 -179 0
-176 -180 0
-173 -309 0
-174 -310 0
-175 -311 0
-176 -312 0
-173 -341 0
-174 -342 0
-175 -343 0
-176 -344 0
-177 -269 0
-178 -270 0
-179 -271 0
-180 -272 0
-177 -341 0
-178 -342 0
-179 -343 0
-180 -344 0
-177 -357 0
-178 -358 0
-179 -359 0
-180 -360 0
-177 -373 0
-178 -374 0
-179 -375 0
-180 -376 0
-181 -317 0
-182 -318 0
-183 -319 0
-184 -320 0
-181 -349 0
-182 -350 0
-183 -351 0
-184 -352 0
-181 -541 0
-182 -542 0
-183 -543 0
-184 -544 0
-185 -261 0
-186 -262 0
-187 -263 0
-188 -264 0
-185 -285 0
-186 -286 0
-187 -287 0
-188 -288 0
-185 -289 0
-186 -290 0
-187 -291 0
-188 -292 0
-185 -321 0
-186 -322 0
-187 -323 0
-188 -324 0
-185 -353 0
-186 -354 0
-187 -355 0
-188 -356 0
-185 -545 0
-186 -546 0
-187 -547 0
-188 -548 0
-185 -597 0
-186 -598 0
-187 -599 0
-188 -600 0
-185 -757 0
-186 -758 0
-187 -759 0
-188 -760 0
-185 -761 0
-186 -762 0
-187 -763 0
-188 -764 0
-189 -293 0
-190 -294 0
-191 -295 0
-192 -296 0
-189 -469 0
-190 -470 0
-191 -471 0
-192 -472 0
-189 -549 0
-190 -550 0
-191 -551 0
-192 -552 0
-189 -773 0
-190 -774 0
-191 -775 0
-192 -776 0
-193 -201 0
-194 -202 0
-195 -203 0
-196 -204 0
-193 -265 0
-194 -266 0
-195 -267 0
-196 -268 0
-193 -509 0
-194 -510 0
-195 -511 0
-196 -512 0
-193 -521 0
-194 -522 0
-195 -523 0
-196 -524 0
-193 -525 0
-194 -526 0
-195 -527 0
-196 -528 0
-193 -553 0
-194 -554 0
-195 -555 0
-196 -556 0
-193 -901 0
-194 -902 0
-195 -903 0
-196 -904 0
-193 -945 0
-194 -946 0
-195 -947 0
-196 -948 0
-193 -1097 0
-194 -1098 0
-195 -1099 0
-196 -1100 0
-197 -261 0
-198 -262 0
-199 -263 0
-200 -264 0
-197 -265 0
-198 -266 0
-199 -267 0
-200 -268 0
-197 -417 0
-198 -418 0
-199 -419 0
-200 -420 0
-197 -949 0
-198 -950 0
-199 -951 0
-200 -952 0
-201 -277 0
-202 -278 0
-203 -279 0
-204 -280 0
-205 -301 0
-206 -302 0
-207 -303 0
-208 -304 0
-205 -305 0
-206 -306 0
-207 -307 0
-208 -308 0
-205 -533 0
-206 -534 0
-207 -535 0
-208 -536 0
-205 -557 0
-206 -558 0
-207 -559 0
-208 -560 0
-205 -765 0
-206 -766 0
-207 -767 0
-208 -768 0
-209 -305 0
-210 -306 0
-211 -307 0
-212 -308 0
-209 -333 0
-210 -334 0
-211 -335 0
-212 -336 0
-209 -365 0
-210 -366 0
-211 -367 0
-212 -368 0
-209 -377 0
-210 -378 0
-211 -379 0
-212 -380 0
-209 -581 0
-210 -582 0
-211 -583 0
-212 -584 0
-209 -661 0
-210 -662 0
-211 -663 0
-212 -664 0
-209 -769 0
-210 -770 0
-211 -771 0
-212 -772 0
-209 -941 0
-210 -942 0
-211 -943 0
-212 -944 0
-209 -953 0
-210 -954 0
-211 -955 0
-212 -956 0
-209 -1001 0
-210 -1002 0
-211 -1003 0
-212 -1004 0
-213 -273 0
-214 -274 0
-215 -275 0
-216 -276 0
-213 -293 0
-214 -294 0
-215 -295 0
-216 -296 0
-217 -385 0
-218 -386 0
-219 -387 0
-220 -388 0
-217 -393 0
-218 -394 0
-219 -395 0
-220 -396 0
-217 -465 0
-218 -466 0
-219 -467 0
-220 -468 0
-217 -953 0
-218 -954 0
-219 -955 0
-220 -956 0
-221 -345 0
-222 -346 0
-223 -347 0
-224 -348 0
-221 -349 0
-222 -350 0
-223 -351 0
-224 -352 0
-225 -253 0
-226 -254 0
-227 -255 0
-228 -256 0
-233 -313 0
-234 -314 0
-235 -315 0
-236 -316 0
-233 -317 0
-234 -318 0
-235 -319 0
-236 -320 0
-233 -321 0
-234 -322 0
-235 -323 0
-236 -324 0
-233 -325 0
-234 -326 0
-235 -327 0
-236 -328 0
-233 -513 0
-234 -514 0
-235 -515 0
-236 -516 0
-233 -537 0
-234 -538 0
-235 -539 0
-236 -540 0
-233 -585 0
-234 -586 0
-235 -587 0
-236 -588 0
-233 -949 0
-234 -950 0
-235 -951 0
-236 -952 0
-233 -957 0
-234 -958 0
-235 -959 0
-236 -960 0
-237 -277 0
-238 -278 0
-239 -279 0
-240 -280 0
-237 -337 0
-238 -338 0
-239 -339 0
-240 -340 0
-237 -369 0
-238 -370 0
-239 -371 0
-240 -372 0
-237 -561 0
-238 -562 0
-239 -563 0
-240 -564 0
-237 -565 0
-238 -566 0
-239 -567 0
-240 -568 0
-241 -341 0
-242 -342 0
-243 -343 0
-244 -344 0
-245 -493 0
-246 -494 0
-247 -495 0
-248 -496 0
-245 -757 0
-246 -758 0
-247 -759 0
-248 -760 0
-249 -257 0
-250 -258 0
-251 -259 0
-252 -260 0
-249 -397 0
-250 -398 0
-251 -399 0
-252 -400 0
-249 -469 0
-250 -470 0
-251 -471 0
-252 -472 0
-249 -537 0
-250 -538 0
-251 -539 0
-252 -540 0
-249 -569 0
-250 -570 0
-251 -571 0
-252 -572 0
-249 -573 0
-250 -574 0
-251 -575 0
-252 -576 0
-249 -605 0
-250 -606 0
-251 -607 0
-252 -608 0
-253 -257 0
-254 -258 0
-255 -259 0
-256 -260 0
-253 -401 0
-254 -402 0
-255 -403 0
-256 -404 0
-253 -413 0
-254 -414 0
-255 -415 0
-256 -416 0
-253 -493 0
-254 -494 0
-255 -495 0
-256 -496 0
-253 -573 0
-254 -574 0
-255 -575 0
-256 -576 0
-253 -593 0
-254 -594 0
-255 -595 0
-256 -596 0
-253 -713 0
-254 -714 0
-255 -715 0
-256 -716 0
-257 -433 0
-258 -434 0
-259 -435 0
-260 -436 0
-257 -457 0
-258 -458 0
-259 -459 0
-260 -460 0
-257 -477 0
-258 -478 0
-259 -479 0
-260 -480 0
-257 -549 0
-258 -550 0
-259 -551 0
-260 -552 0
-257 -569 0
-258 -570 0
-259 -571 0
-260 -572 0
-257 -573 0
-258 -574 0
-259 -575 0
-260 -576 0
-257 -725 0
-258 -726 0
-259 -727 0
-260 -728 0
-257 -773 0
-258 -774 0
-259 -775 0
-260 -776 0
-261 -265 0
-262 -266 0
-263 -267 0
-264 -268 0
-261 -289 0
-262 -290 0
-263 -291 0
-264 -292 0
-261 -405 0
-262 -406 0
-263 -407 0
-264 -408 0
-261 -417 0
-262 -418 0
-263 -419 0
-264 -420 0
-261 -481 0
-262 -482 0
-263 -483 0
-264 -484 0
-261 -501 0
-262 -502 0
-263 -503 0
-264 -504 0
-261 -761 0
-262 -762 0
-263 -763 0
-264 -764 0
-261 -961 0
-262 -962 0
-263 -963 0
-264 -964 0
-261 -965 0
-262 -966 0
-263 -967 0
-264 -968 0
-261 -1057 0
-262 -1058 0
-263 -1059 0
-264 -1060 0
-265 -501 0
-266 -502 0
-267 -503 0
-268 -504 0
-265 -509 0
-266 -510 0
-267 -511 0
-268 -512 0
-265 -641 0
-266 -642 0
-267 -643 0
-268 -644 0
-265 -777 0
-266 -778 0
-267 -779 0
-268 -780 0
-265 -1045 0
-266 -1046 0
-267 -1047 0
-268 -1048 0
-265 -1061 0
-266 -1062 0
-267 -1063 0
-268 -1064 0
-265 -1085 0
-266 -1086 0
-267 -1087 0
-268 -1088 0
-269 -373 0
-270 -374 0
-271 -375 0
-272 -376 0
-269 -393 0
-270 -394 0
-271 -395 0
-272 -396 0
-273 -357 0
-274 -358 0
-275 -359 0
-276 -360 0
-273 -397 0
-274 -398 0
-275 -399 0
-276 -400 0
-273 -445 0
-274 -446 0
-275 -447 0
-276 -448 0
-273 -469 0
-274 -470 0
-275 -471 0
-276 -472 0
-273 -489 0
-274 -490 0
-275 -491 0
-276 -492 0
-277 -525 0
-278 -526 0
-279 -527 0
-280 -528 0
-277 -561 0
-278 -562 0
-279 -563 0
-280 -564 0
-277 -645 0
-278 -646 0
-279 -647 0
-280 -648 0
-281 -377 0
-282 -378 0
-283 -379 0
-284 -380 0
-281 -465 0
-282 -466 0
-283 -467 0
-284 -468 0
-281 -529 0
-282 -530 0
-283 -531 0
-284 -532 0
-281 -781 0
-282 -782 0
-283 -783 0
-284 -784 0
-285 -501 0
-286 -502 0
-287 -503 0
-288 -504 0
-285 -545 0
-286 -546 0
-287 -547 0
-288 -548 0
-285 -577 0
-286 -578 0
-287 -579 0
-288 -580 0
-285 -733 0
-286 -734 0
-287 -735 0
-288 -736 0
-285 -785 0
-286 -786 0
-287 -787 0
-288 -788 0
-285 -1017 0
-286 -1018 0
-287 -1019 0
-288 -1020 0
-289 -577 0
-290 -578 0
-291 -579 0
-292 -580 0
-289 -701 0
-290 -702 0
-291 -703 0
-292 -704 0
-289 -833 0
-290 -834 0
-291 -835 0
-292 -836 0
-289 -969 0
-290 -970 0
-291 -971 0
-292 -972 0
-289 -973 0
-290 -974 0
-291 -975 0
-292 -976 0
-289 -1021 0
-290 -1022 0
-291 -1023 0
-292 -1024 0
-293 -433 0
-294 -434 0
-295 -435 0
-296 -436 0
-293 -569 0
-294 -570 0
-295 -571 0
-296 -572 0
-293 -789 0
-294 -790 0
-295 -791 0
-296 -792 0
-297 -361 0
-298 -362 0
-299 -363 0
-300 -364 0
-297 -457 0
-298 -458 0
-299 -459 0
-300 -460 0
-297 -505 0
-298 -506 0
-299 -507 0
-300 -508 0
-297 -653 0
-298 -654 0
-299 -655 0
-300 -656 0
-297 -673 0
-298 -674 0
-299 -675 0
-300 -676 0
-297 -777 0
-298 -778 0
-299 -779 0
-300 -780 0
-301 -429 0
-302 -430 0
-303 -431 0
-304 -432 0
-301 -581 0
-302 -582 0
-303 -583 0
-304 -584 0
-305 -441 0
-306 -442 0
-307 -443 0
-308 -444 0
-305 -449 0
-306 -450 0
-307 -451 0
-308 -452 0
-305 -557 0
-306 -558 0
-307 -559 0
-308 -560 0
-305 -629 0
-306 -630 0
-307 -631 0
-308 -632 0
-305 -821 0
-306 -822 0
-307 -823 0
-308 -824 0
-309 -417 0
-310 -418 0
-311 -419 0
-312 -420 0
-309 -793 0
-310 -794 0
-311 -795 0
-312 -796 0
-313 -317 0
-314 -318 0
-315 -319 0
-316 -320 0
-313 -333 0
-314 -334 0
-315 -335 0
-316 -336 0
-313 -521 0
-314 -522 0
-315 -523 0
-316 -524 0
-313 -553 0
-314 -554 0
-315 -555 0
-316 -556 0
-317 -541 0
-318 -542 0
-319 -543 0
-320 -544 0
-317 -589 0
-318 -590 0
-319 -591 0
-320 -592 0
-321 -397 0
-322 -398 0
-323 -399 0
-324 -400 0
-321 -585 0
-322 -586 0
-323 -587 0
-324 -588 0
-321 -597 0
-322 -598 0
-323 -599 0
-324 -600 0
-325 -357 0
-326 -358 0
-327 -359 0
-328 -360 0
-325 -401 0
-326 -402 0
-327 -403 0
-328 -404 0
-325 -493 0
-326 -494 0
-327 -495 0
-328 -496 0
-325 -513 0
-326 -514 0
-327 -515 0
-328 -516 0
-325 -537 0
-326 -538 0
-327 -539 0
-328 -540 0
-329 -461 0
-330 -462 0
-331 -463 0
-332 -464 0
-329 -529 0
-330 -530 0
-331 -531 0
-332 -532 0
-329 -577 0
-330 -578 0
-331 -579 0
-332 -580 0
-329 -721 0
-330 -722 0
-331 -723 0
-332 -724 0
-329 -785 0
-330 -786 0
-331 -787 0
-332 -788 0
-329 -797 0
-330 -798 0
-331 -799 0
-332 -800 0
-329 -917 0
-330 -918 0
-331 -919 0
-332 -920 0
-333 -429 0
-334 -430 0
-335 -431 0
-336 -432 0
-333 -517 0
-334 -518 0
-335 -519 0
-336 -520 0
-333 -533 0
-334 -534 0
-335 -535 0
-336 -536 0
-333 -581 0
-334 -582 0
-335 -583 0
-336 -584 0
-333 -601 0
-334 -602 0
-335 -603 0
-336 -604 0
-333 -729 0
-334 -730 0
-335 -731 0
-336 -732 0
-333 -765 0
-334 -766 0
-335 -767 0
-336 -768 0
-333 -769 0
-334 -770 0
-335 -771 0
-336 -772 0
-337 -497 0
-338 -498 0
-339 -499 0
-340 -500 0
-337 -565 0
-338 -566 0
-339 -567 0
-340 -568 0
-337 -717 0
-338 -718 0
-339 -719 0
-340 -720 0
-337 -745 0
-338 -746 0
-339 -747 0
-340 -748 0
-345 -353 0
-346 -354 0
-347 -355 0
-348 -356 0
-345 -541 0
-346 -542 0
-347 -543 0
-348 -544 0
-345 -589 0
-346 -590 0
-347 -591 0
-348 -592 0
-349 -409 0
-350 -410 0
-351 -411 0
-352 -412 0
-349 -421 0
-350 -422 0
-351 -423 0
-352 -424 0
-353 -421 0
-354 -422 0
-355 -423 0
-356 -424 0
-353 -693 0
-354 -694 0
-355 -695 0
-356 -696 0
-361 -801 0
-362 -802 0
-363 -803 0
-364 -804 0
-365 -425 0
-366 -426 0
-367 -427 0
-368 -428 0
-365 -433 0
-366 -434 0
-367 -435 0
-368 -436 0
-365 -557 0
-366 -558 0
-367 -559 0
-368 -560 0
-365 -705 0
-366 -706 0
-367 -707 0
-368 -708 0
-365 -805 0
-366 -806 0
-367 -807 0
-368 -808 0
-365 -977 0
-366 -978 0
-367 -979 0
-368 -980 0
-369 -381 0
-370 -382 0
-371 -383 0
-372 -384 0
-369 -561 0
-370 -562 0
-371 -563 0
-372 -564 0
-369 -565 0
-370 -566 0
-371 -567 0
-372 -568 0
-369 -845 0
-370 -846 0
-371 -847 0
-372 -848 0
-369 -925 0
-370 -926 0
-371 -927 0
-372 -928 0
-369 -933 0
-370 -934 0
-371 -935 0
-372 -936 0
-377 -477 0
-378 -478 0
-379 -479 0
-380 -480 0
-377 -485 0
-378 -486 0
-379 -487 0
-380 -488 0
-377 -809 0
-378 -810 0
-379 -811 0
-380 -812 0
-377 -813 0
-378 -814 0
-379 -815 0
-380 -816 0
-381 -453 0
-382 -454 0
-383 -455 0
-384 -456 0
-381 -473 0
-382 -474 0
-383 -475 0
-384 -476 0
-381 -485 0
-382 -486 0
-383 -487 0
-384 -488 0
-381 -845 0
-382 -846 0
-383 -847 0
-384 -848 0
-385 -453 0
-386 -454 0
-387 -455 0
-388 -456 0
-385 -465 0
-386 -466 0
-387 -467 0
-388 -468 0
-385 -529 0
-386 -530 0
-387 -531 0
-388 -532 0
-389 -401 0
-390 -402 0
-391 -403 0
-392 -404 0
-389 -437 0
-390 -438 0
-391 -439 0
-392 -440 0
-397 -401 0
-398 -402 0
-399 -403 0
-400 -404 0
-397 -489 0
-398 -490 0
-399 -491 0
-400 -492 0
-397 -585 0
-398 -586 0
-399 -587 0
-400 -588 0
-401 -437 0
-402 -438 0
-403 -439 0
-404 -440 0
-401 -593 0
-402 -594 0
-403 -595 0
-404 -596 0
-405 -481 0
-406 -482 0
-407 -483 0
-408 -484 0
-405 -597 0
-406 -598 0
-407 -599 0
-408 -600 0
-405 -621 0
-406 -622 0
-407 -623 0
-408 -624 0
-405 -849 0
-406 -850 0
-407 -851 0
-408 -852 0
-405 -921 0
-406 -922 0
-407 -923 0
-408 -924 0
-405 -1065 0
-406 -1066 0
-407 -1067 0
-408 -1068 0
-405 -1093 0
-406 -1094 0
-407 -1095 0
-408 -1096 0
-409 -421 0
-410 -422 0
-411 -423 0
-412 -424 0
-409 -757 0
-410 -758 0
-411 -759 0
-412 -760 0
-409 -761 0
-410 -762 0
-411 -763 0
-412 -764 0
-409 -873 0
-410 -874 0
-411 -875 0
-412 -876 0
-413 -493 0
-414 -494 0
-415 -495 0
-416 -496 0
-413 -633 0
-414 -634 0
-415 -635 0
-416 -636 0
-413 -649 0
-414 -650 0
-415 -651 0
-416 -652 0
-417 -421 0
-418 -422 0
-419 -423 0
-420 -424 0
-417 -609 0
-418 -610 0
-419 -611 0
-420 -612 0
-417 -637 0
-418 -638 0
-419 -639 0
-420 -640 0
-417 -677 0
-418 -678 0
-419 -679 0
-420 -680 0
-417 -793 0
-418 -794 0
-419 -795 0
-420 -796 0
-417 -973 0
-418 -974 0
-419 -975 0
-420 -976 0
-417 -981 0
-418 -982 0
-419 -983 0
-420 -984 0
-417 -1073 0
-418 -1074 0
-419 -1075 0
-420 -1076 0
-421 -709 0
-422 -710 0
-423 -711 0
-424 -712 0
-421 -793 0
-422 -794 0
-423 -795 0
-424 -796 0
-425 -433 0
-426 -434 0
-427 -435 0
-428 -436 0
-425 -613 0
-426 -614 0
-427 -615 0
-428 -616 0
-425 -661 0
-426 -662 0
-427 -663 0
-428 -664 0
-425 -741 0
-426 -742 0
-427 -743 0
-428 -744 0
-425 -753 0
-426 -754 0
-427 -755 0
-428 -756 0
-425 -817 0
-426 -818 0
-427 -819 0
-428 -820 0
-425 -885 0
-426 -886 0
-427 -887 0
-428 -888 0
-425 -905 0
-426 -906 0
-427 -907 0
-428 -908 0
-425 -1029 0
-426 -1030 0
-427 -1031 0
-428 -1032 0
-429 -581 0
-430 -582 0
-431 -583 0
-432 -584 0
-429 -585 0
-430 -586 0
-431 -587 0
-432 -588 0
-429 -605 0
-430 -606 0
-431 -607 0
-432 -608 0
-429 -629 0
-430 -630 0
-431 -631 0
-432 -632 0
-429 -669 0
-430 -670 0
-431 -671 0
-432 -672 0
-429 -729 0
-430 -730 0
-431 -731 0
-432 -732 0
-429 -821 0
-430 -822 0
-431 -823 0
-432 -824 0
-433 -477 0
-434 -478 0
-435 -479 0
-436 -480 0
-433 -569 0
-434 -570 0
-435 -571 0
-436 -572 0
-433 -625 0
-434 -626 0
-435 -627 0
-436 -628 0
-433 -705 0
-434 -706 0
-435 -707 0
-436 -708 0
-433 -789 0
-434 -790 0
-435 -791 0
-436 -792 0
-433 -813 0
-434 -814 0
-435 -815 0
-436 -816 0
-433 -985 0
-434 -986 0
-435 -987 0
-436 -988 0
-437 -513 0
-438 -514 0
-439 -515 0
-440 -516 0
-437 -589 0
-438 -590 0
-439 -591 0
-440 -592 0
-441 -449 0
-442 -450 0
-443 -451 0
-444 -452 0
-441 -661 0
-442 -662 0
-443 -663 0
-444 -664 0
-441 -841 0
-442 -842 0
-443 -843 0
-444 -844 0
-445 -469 0
-446 -470 0
-447 -471 0
-448 -472 0
-453 -485 0
-454 -486 0
-455 -487 0
-456 -488 0
-453 -529 0
-454 -530 0
-455 -531 0
-456 -532 0
-453 -797 0
-454 -798 0
-455 -799 0
-456 -800 0
-453 -809 0
-454 -810 0
-455 -811 0
-456 -812 0
-453 -845 0
-454 -846 0
-455 -847 0
-456 -848 0
-457 -477 0
-458 -478 0
-459 -479 0
-460 -480 0
-457 -633 0
-458 -634 0
-459 -635 0
-460 -636 0
-457 -649 0
-458 -650 0
-459 -651 0
-460 -652 0
-457 -653 0
-458 -654 0
-459 -655 0
-460 -656 0
-457 -725 0
-458 -726 0
-459 -727 0
-460 -728 0
-457 -741 0
-458 -742 0
-459 -743 0
-460 -744 0
-457 -801 0
-458 -802 0
-459 -803 0
-460 -804 0
-457 -817 0
-458 -818 0
-459 -819 0
-460 -820 0
-461 -481 0
-462 -482 0
-463 -483 0
-464 -484 0
-461 -657 0
-462 -658 0
-463 -659 0
-464 -660 0
-461 -689 0
-462 -690 0
-463 -691 0
-464 -692 0
-461 -721 0
-462 -722 0
-463 -723 0
-464 -724 0
-461 -753 0
-462 -754 0
-463 -755 0
-464 -756 0
-461 -825 0
-462 -826 0
-463 -827 0
-464 -828 0
-461 -989 0
-462 -990 0
-463 -991 0
-464 -992 0
-461 -993 0
-462 -994 0
-463 -995 0
-464 -996 0
-461 -1009 0
-462 -1010 0
-463 -1011 0
-464 -1012 0
-465 -601 0
-466 -602 0
-467 -603 0
-468 -604 0
-465 -661 0
-466 -662 0
-467 -663 0
-468 -664 0
-465 -697 0
-466 -698 0
-467 -699 0
-468 -700 0
-469 -625 0
-470 -626 0
-471 -627 0
-472 -628 0
-469 -985 0
-470 -986 0
-471 -987 0
-472 -988 0
-473 -673 0
-474 -674 0
-475 -675 0
-476 -676 0
-473 -681 0
-474 -682 0
-475 -683 0
-476 -684 0
-473 -749 0
-474 -750 0
-475 -751 0
-476 -752 0
-477 -813 0
-478 -814 0
-479 -815 0
-480 -816 0
-481 -609 0
-482 -610 0
-483 -611 0
-484 -612 0
-481 -613 0
-482 -614 0
-483 -615 0
-484 -616 0
-481 -701 0
-482 -702 0
-483 -703 0
-484 -704 0
-481 -753 0
-482 -754 0
-483 -755 0
-484 -756 0
-481 -825 0
-482 -826 0
-483 -827 0
-484 -828 0
-481 -1057 0
-482 -1058 0
-483 -1059 0
-484 -1060 0
-481 -1069 0
-482 -1070 0
-483 -1071 0
-484 -1072 0
-481 -1101 0
-482 -1102 0
-483 -1103 0
-484 -1104 0
-485 -737 0
-486 -738 0
-487 -739 0
-488 -740 0
-485 -809 0
-486 -810 0
-487 -811 0
-488 -812 0
-493 -713 0
-494 -714 0
-495 -715 0
-496 -716 0
-497 -521 0
-498 -522 0
-499 -523 0
-500 -524 0
-497 -745 0
-498 -746 0
-499 -747 0
-500 -748 0
-497 -869 0
-498 -870 0
-499 -871 0
-500 -872 0
-497 -989 0
-498 -990 0
-499 -991 0
-500 -992 0
-501 -525 0
-502 -526 0
-503 -527 0
-504 -528 0
-501 -685 0
-502 -686 0
-503 -687 0
-504 -688 0
-501 -733 0
-502 -734 0
-503 -735 0
-504 -736 0
-501 -785 0
-502 -786 0
-503 -787 0
-504 -788 0
-501 -1065 0
-502 -1066 0
-503 -1067 0
-504 -1068 0
-501 -1073 0
-502 -1074 0
-503 -1075 0
-504 -1076 0
-505 -509 0
-506 -510 0
-507 -511 0
-508 -512 0
-505 -673 0
-506 -674 0
-507 -675 0
-508 -676 0
-505 -777 0
-506 -778 0
-507 -779 0
-508 -780 0
-509 -961 0
-510 -962 0
-511 -963 0
-512 -964 0
-513 -589 0
-514 -590 0
-515 -591 0
-516 -592 0
-517 -729 0
-518 -730 0
-519 -731 0
-520 -732 0
-517 -829 0
-518 -830 0
-519 -831 0
-520 -832 0
-517 -861 0
-518 -862 0
-519 -863 0
-520 -864 0
-517 -1025 0
-518 -1026 0
-519 -1027 0
-520 -1028 0
-521 -553 0
-522 -554 0
-523 -555 0
-524 -556 0
-525 -561 0
-526 -562 0
-527 -563 0
-528 -564 0
-525 -749 0
-526 -750 0
-527 -751 0
-528 -752 0
-533 -765 0
-534 -766 0
-535 -767 0
-536 -768 0
-537 -729 0
-538 -730 0
-539 -731 0
-540 -732 0
-541 -589 0
-542 -590 0
-543 -591 0
-544 -592 0
-545 -585 0
-546 -586 0
-547 -587 0
-548 -588 0
-545 -665 0
-546 -666 0
-547 -667 0
-548 -668 0
-545 -689 0
-546 -690 0
-547 -691 0
-548 -692 0
-545 -693 0
-546 -694 0
-547 -695 0
-548 -696 0
-545 -821 0
-546 -822 0
-547 -823 0
-548 -824 0
-545 -833 0
-546 -834 0
-547 -835 0
-548 -836 0
-545 -997 0
-546 -998 0
-547 -999 0
-548 -1000 0
-549 -773 0
-550 -774 0
-551 -775 0
-552 -776 0
-549 -789 0
-550 -790 0
-551 -791 0
-552 -792 0
-549 -937 0
-550 -938 0
-551 -939 0
-552 -940 0
-549 -1001 0
-550 -1002 0
-551 -1003 0
-552 -1004 0
-557 -805 0
-558 -806 0
-559 -807 0
-560 -808 0
-557 -977 0
-558 -978 0
-559 -979 0
-560 -980 0
-565 -645 0
-566 -646 0
-567 -647 0
-568 -648 0
-569 -817 0
-570 -818 0
-571 -819 0
-572 -820 0
-573 -617 0
-574 -618 0
-575 -619 0
-576 -620 0
-573 -625 0
-574 -626 0
-575 -627 0
-576 -628 0
-573 -633 0
-574 -634 0
-575 -635 0
-576 -636 0
-577 -657 0
-578 -658 0
-579 -659 0
-580 -660 0
-577 -785 0
-578 -786 0
-579 -787 0
-580 -788 0
-577 -969 0
-578 -970 0
-579 -971 0
-580 -972 0
-581 -829 0
-582 -830 0
-583 -831 0
-584 -832 0
-585 -605 0
-586 -606 0
-587 -607 0
-588 -608 0
-585 -693 0
-586 -694 0
-587 -695 0
-588 -696 0
-585 -829 0
-586 -830 0
-587 -831 0
-588 -832 0
-585 -837 0
-586 -838 0
-587 -839 0
-588 -840 0
-585 -997 0
-586 -998 0
-587 -999 0
-588 -1000 0
-593 -737 0
-594 -738 0
-595 -739 0
-596 -740 0
-593 -773 0
-594 -774 0
-595 -775 0
-596 -776 0
-597 -621 0
-598 -622 0
-599 -623 0
-600 -624 0
-597 -837 0
-598 -838 0
-599 -839 0
-600 -840 0
-597 -853 0
-598 -854 0
-599 -855 0
-600 -856 0
-601 -697 0
-602 -698 0
-603 -699 0
-604 -700 0
-601 -717 0
-602 -718 0
-603 -719 0
-604 -720 0
-601 -769 0
-602 -770 0
-603 -771 0
-604 -772 0
-601 -781 0
-602 -782 0
-603 -783 0
-604 -784 0
-601 -993 0
-602 -994 0
-603 -995 0
-604 -996 0
-605 -669 0
-606 -670 0
-607 -671 0
-608 -672 0
-609 -613 0
-610 -614 0
-611 -615 0
-612 -616 0
-609 -677 0
-610 -678 0
-611 -679 0
-612 -680 0
-609 -873 0
-610 -874 0
-611 -875 0
-612 -876 0
-609 -921 0
-610 -922 0
-611 -923 0
-612 -924 0
-609 -945 0
-610 -946 0
-611 -947 0
-612 -948 0
-609 -981 0
-610 -982 0
-611 -983 0
-612 -984 0
-609 -1077 0
-610 -1078 0
-611 -1079 0
-612 -1080 0
-613 -665 0
-614 -666 0
-615 -667 0
-616 -668 0
-613 -849 0
-614 -850 0
-615 -851 0
-616 -852 0
-613 -877 0
-614 -878 0
-615 -879 0
-616 -880 0
-613 -885 0
-614 -886 0
-615 -887 0
-616 -888 0
-613 -985 0
-614 -986 0
-615 -987 0
-616 -988 0
-613 -1029 0
-614 -1030 0
-615 -1031 0
-616 -1032 0
-613 -1081 0
-614 -1082 0
-615 -1083 0
-616 -1084 0
-613 -1101 0
-614 -1102 0
-615 -1103 0
-616 -1104 0
-617 -633 0
-618 -634 0
-619 -635 0
-620 -636 0
-617 -713 0
-618 -714 0
-619 -715 0
-620 -716 0
-617 -853 0
-618 -854 0
-619 -855 0
-620 -856 0
-617 -921 0
-618 -922 0
-619 -923 0
-620 -924 0
-621 -757 0
-622 -758 0
-623 -759 0
-624 -760 0
-621 -853 0
-622 -854 0
-623 -855 0
-624 -856 0
-621 -973 0
-622 -974 0
-623 -975 0
-624 -976 0
-625 -633 0
-626 -634 0
-627 -635 0
-628 -636 0
-625 -877 0
-626 -878 0
-627 -879 0
-628 -880 0
-625 -985 0
-626 -986 0
-627 -987 0
-628 -988 0
-625 -1005 0
-626 -1006 0
-627 -1007 0
-628 -1008 0
-625 -1033 0
-626 -1034 0
-627 -1035 0
-628 -1036 0
-625 -1041 0
-626 -1042 0
-627 -1043 0
-628 -1044 0
-625 -1053 0
-626 -1054 0
-627 -1055 0
-628 -1056 0
-629 -689 0
-630 -690 0
-631 -691 0
-632 -692 0
-629 -769 0
-630 -770 0
-631 -771 0
-632 -772 0
-629 -821 0
-630 -822 0
-631 -823 0
-632 -824 0
-629 -861 0
-630 -862 0
-631 -863 0
-632 -864 0
-629 -957 0
-630 -958 0
-631 -959 0
-632 -960 0
-629 -1009 0
-630 -1010 0
-631 -1011 0
-632 -1012 0
-629 -1013 0
-630 -1014 0
-631 -1015 0
-632 -1016 0
-633 -649 0
-634 -650 0
-635 -651 0
-636 -652 0
-633 -817 0
-634 -818 0
-635 -819 0
-636 -820 0
-633 -857 0
-634 -858 0
-635 -859 0
-636 -860 0
-633 -913 0
-634 -914 0
-635 -915 0
-636 -916 0
-637 -641 0
-638 -642 0
-639 -643 0
-640 -644 0
-637 -677 0
-638 -678 0
-639 -679 0
-640 -680 0
-637 -881 0
-638 -882 0
-639 -883 0
-640 -884 0
-641 -653 0
-642 -654 0
-643 -655 0
-644 -656 0
-641 -777 0
-642 -778 0
-643 -779 0
-644 -780 0
-641 -865 0
-642 -866 0
-643 -867 0
-644 -868 0
-641 -945 0
-642 -946 0
-643 -947 0
-644 -948 0
-641 -1077 0
-642 -1078 0
-643 -1079 0
-644 -1080 0
-645 -933 0
-646 -934 0
-647 -935 0
-648 -936 0
-649 -1005 0
-650 -1006 0
-651 -1007 0
-652 -1008 0
-653 -857 0
-654 -858 0
-655 -859 0
-656 -860 0
-653 -865 0
-654 -866 0
-655 -867 0
-656 -868 0
-657 -769 0
-658 -770 0
-659 -771 0
-660 -772 0
-657 -861 0
-658 -862 0
-659 -863 0
-660 -864 0
-657 -893 0
-658 -894 0
-659 -895 0
-660 -896 0
-657 -969 0
-658 -970 0
-659 -971 0
-660 -972 0
-657 -993 0
-658 -994 0
-659 -995 0
-660 -996 0
-661 -753 0
-662 -754 0
-663 -755 0
-664 -756 0
-661 -841 0
-662 -842 0
-663 -843 0
-664 -844 0
-661 -953 0
-662 -954 0
-663 -955 0
-664 -956 0
-665 -669 0
-666 -670 0
-667 -671 0
-668 -672 0
-665 -705 0
-666 -706 0
-667 -707 0
-668 -708 0
-665 -821 0
-666 -822 0
-667 -823 0
-668 -824 0
-665 -985 0
-666 -986 0
-667 -987 0
-668 -988 0
-665 -997 0
-666 -998 0
-667 -999 0
-668 -1000 0
-665 -1029 0
-666 -1030 0
-667 -1031 0
-668 -1032 0
-669 -897 0
-670 -898 0
-671 -899 0
-672 -900 0
-673 -865 0
-674 -866 0
-675 -867 0
-676 -868 0
-673 -929 0
-674 -930 0
-675 -931 0
-676 -932 0
-677 -961 0
-678 -962 0
-679 -963 0
-680 -964 0
-681 -749 0
-682 -750 0
-683 -751 0
-684 -752 0
-681 -1037 0
-682 -1038 0
-683 -1039 0
-684 -1040 0
-681 -1085 0
-682 -1086 0
-683 -1087 0
-684 -1088 0
-685 -825 0
-686 -826 0
-687 -827 0
-688 -828 0
-685 -901 0
-686 -902 0
-687 -903 0
-688 -904 0
-685 -917 0
-686 -918 0
-687 -919 0
-688 -920 0
-685 -925 0
-686 -926 0
-687 -927 0
-688 -928 0
-685 -933 0
-686 -934 0
-687 -935 0
-688 -936 0
-689 -693 0
-690 -694 0
-691 -695 0
-692 -696 0
-689 -949 0
-690 -950 0
-691 -951 0
-692 -952 0
-689 -957 0
-690 -958 0
-691 -959 0
-692 -960 0
-689 -989 0
-690 -990 0
-691 -991 0
-692 -992 0
-689 -1009 0
-690 -1010 0
-691 -1011 0
-692 -1012 0
-689 -1017 0
-690 -1018 0
-691 -1019 0
-692 -1020 0
-697 -765 0
-698 -766 0
-699 -767 0
-700 -768 0
-701 -753 0
-702 -754 0
-703 -755 0
-704 -756 0
-701 -893 0
-702 -894 0
-703 -895 0
-704 -896 0
-701 -905 0
-702 -906 0
-703 -907 0
-704 -908 0
-701 -953 0
-702 -954 0
-703 -955 0
-704 -956 0
-701 -1021 0
-702 -1022 0
-703 -1023 0
-704 -1024 0
-701 -1089 0
-702 -1090 0
-703 -1091 0
-704 -1092 0
-705 -789 0
-706 -790 0
-707 -791 0
-708 -792 0
-705 -909 0
-706 -910 0
-707 -911 0
-708 -912 0
-705 -977 0
-706 -978 0
-707 -979 0
-708 -980 0
-709 -761 0
-710 -762 0
-711 -763 0
-712 -764 0
-709 -965 0
-710 -966 0
-711 -967 0
-712 -968 0
-717 -781 0
-718 -782 0
-719 -783 0
-720 -784 0
-717 -861 0
-718 -862 0
-719 -863 0
-720 -864 0
-717 -1025 0
-718 -1026 0
-719 -1027 0
-720 -1028 0
-721 -781 0
-722 -782 0
-723 -783 0
-724 -784 0
-721 -1069 0
-722 -1070 0
-723 -1071 0
-724 -1072 0
-725 -801 0
-726 -802 0
-727 -803 0
-728 -804 0
-733 -965 0
-734 -966 0
-735 -967 0
-736 -968 0
-737 -773 0
-738 -774 0
-739 -775 0
-740 -776 0
-737 -941 0
-738 -942 0
-739 -943 0
-740 -944 0
-737 -1001 0
-738 -1002 0
-739 -1003 0
-740 -1004 0
-741 -817 0
-742 -818 0
-743 -819 0
-744 -820 0
-741 -865 0
-742 -866 0
-743 -867 0
-744 -868 0
-741 -929 0
-742 -930 0
-743 -931 0
-744 -932 0
-741 -1005 0
-742 -1006 0
-743 -1007 0
-744 -1008 0
-745 -797 0
-746 -798 0
-747 -799 0
-748 -800 0
-745 -925 0
-746 -926 0
-747 -927 0
-748 -928 0
-749 -933 0
-750 -934 0
-751 -935 0
-752 -936 0
-757 -761 0
-758 -762 0
-759 -763 0
-760 -764 0
-757 -973 0
-758 -974 0
-759 -975 0
-760 -976 0
-761 -965 0
-762 -966 0
-763 -967 0
-764 -968 0
-769 -861 0
-770 -862 0
-771 -863 0
-772 -864 0
-781 -993 0
-782 -994 0
-783 -995 0
-784 -996 0
-789 -937 0
-790 -938 0
-791 -939 0
-792 -940 0
-793 -873 0
-794 -874 0
-795 -875 0
-796 -876 0
-793 -881 0
-794 -882 0
-795 -883 0
-796 -884 0
-793 -889 0
-794 -890 0
-795 -891 0
-796 -892 0
-797 -825 0
-798 -826 0
-799 -827 0
-800 -828 0
-797 -845 0
-798 -846 0
-799 -847 0
-800 -848 0
-801 -889 0
-802 -890 0
-803 -891 0
-804 -892 0
-805 -905 0
-806 -906 0
-807 -907 0
-808 -908 0
-805 -909 0
-806 -910 0
-807 -911 0
-808 -912 0
-809 -941 0
-810 -942 0
-811 -943 0
-812 -944 0
-813 -937 0
-814 -938 0
-815 -939 0
-816 -940 0
-821 -833 0
-822 -834 0
-823 -835 0
-824 -836 0
-825 -885 0
-826 -886 0
-827 -887 0
-828 -888 0
-825 -1097 0
-826 -1098 0
-827 -1099 0
-828 -1100 0
-829 -861 0
-830 -862 0
-831 -863 0
-832 -864 0
-833 -909 0
-834 -910 0
-835 -911 0
-836 -912 0
-833 -969 0
-834 -970 0
-835 -971 0
-836 -972 0
-833 -1013 0
-834 -1014 0
-835 -1015 0
-836 -1016 0
-833 -1089 0
-834 -1090 0
-835 -1091 0
-836 -1092 0
-837 -897 0
-838 -898 0
-839 -899 0
-840 -900 0
-837 -997 0
-838 -998 0
-839 -999 0
-840 -1000 0
-849 -897 0
-850 -898 0
-851 -899 0
-852 -900 0
-849 -985 0
-850 -986 0
-851 -987 0
-852 -988 0
-849 -1033 0
-850 -1034 0
-851 -1035 0
-852 -1036 0
-849 -1093 0
-850 -1094 0
-851 -1095 0
-852 -1096 0
-853 -1033 0
-854 -1034 0
-855 -1035 0
-856 -1036 0
-857 -865 0
-858 -866 0
-859 -867 0
-860 -868 0
-857 -881 0
-858 -882 0
-859 -883 0
-860 -884 0
-857 -913 0
-858 -914 0
-859 -915 0
-860 -916 0
-857 -1045 0
-858 -1046 0
-859 -1047 0
-860 -1048 0
-857 -1061 0
-858 -1062 0
-859 -1063 0
-860 -1064 0
-861 -869 0
-862 -870 0
-863 -871 0
-864 -872 0
-861 -989 0
-862 -990 0
-863 -991 0
-864 -992 0
-861 -1025 0
-862 -1026 0
-863 -1027 0
-864 -1028 0
-865 -929 0
-866 -930 0
-867 -931 0
-868 -932 0
-865 -1005 0
-866 -1006 0
-867 -1007 0
-868 -1008 0
-865 -1037 0
-866 -1038 0
-867 -1039 0
-868 -1040 0
-865 -1085 0
-866 -1086 0
-867 -1087 0
-868 -1088 0
-869 -949 0
-870 -950 0
-871 -951 0
-872 -952 0
-869 -989 0
-870 -990 0
-871 -991 0
-872 -992 0
-873 -877 0
-874 -878 0
-875 -879 0
-876 -880 0
-873 -881 0
-874 -882 0
-875 -883 0
-876 -884 0
-873 -889 0
-874 -890 0
-875 -891 0
-876 -892 0
-873 -913 0
-874 -914 0
-875 -915 0
-876 -916 0
-873 -1077 0
-874 -1078 0
-875 -1079 0
-876 -1080 0
-877 -885 0
-878 -886 0
-879 -887 0
-880 -888 0
-877 -913 0
-878 -914 0
-879 -915 0
-880 -916 0
-877 -1041 0
-878 -1042 0
-879 -1043 0
-880 -1044 0
-877 -1045 0
-878 -1046 0
-879 -1047 0
-880 -1048 0
-877 -1053 0
-878 -1054 0
-879 -1055 0
-880 -1056 0
-881 -1061 0
-882 -1062 0
-883 -1063 0
-884 -1064 0
-885 -945 0
-886 -946 0
-887 -947 0
-888 -948 0
-885 -1049 0
-886 -1050 0
-887 -1051 0
-888 -1052 0
-885 -1097 0
-886 -1098 0
-887 -1099 0
-888 -1100 0
-893 -1013 0
-894 -1014 0
-895 -1015 0
-896 -1016 0
-893 -1021 0
-894 -1022 0
-895 -1023 0
-896 -1024 0
-897 -1093 0
-898 -1094 0
-899 -1095 0
-900 -1096 0
-901 -933 0
-902 -934 0
-903 -935 0
-904 -936 0
-901 -961 0
-902 -962 0
-903 -963 0
-904 -964 0
-901 -1049 0
-902 -1050 0
-903 -1051 0
-904 -1052 0
-901 -1057 0
-902 -1058 0
-903 -1059 0
-904 -1060 0
-905 -909 0
-906 -910 0
-907 -911 0
-908 -912 0
-905 -1029 0
-906 -1030 0
-907 -1031 0
-908 -1032 0
-905 -1089 0
-906 -1090 0
-907 -1091 0
-908 -1092 0
-909 -1081 0
-910 -1082 0
-911 -1083 0
-912 -1084 0
-909 -1101 0
-910 -1102 0
-911 -1103 0
-912 -1104 0
-917 -925 0
-918 -926 0
-919 -927 0
-920 -928 0
-917 -1017 0
-918 -1018 0
-919 -1019 0
-920 -1020 0
-917 -1057 0
-918 -1058 0
-919 -1059 0
-920 -1060 0
-917 -1069 0
-918 -1070 0
-919 -1071 0
-920 -1072 0
-921 -981 0
-922 -982 0
-923 -983 0
-924 -984 0
-937 -977 0
-938 -978 0
-939 -979 0
-940 -980 0
-941 -1001 0
-942 -1002 0
-943 -1003 0
-944 -1004 0
-945 -1077 0
-946 -1078 0
-947 -1079 0
-948 -1080 0
-945 -1097 0
-946 -1098 0
-947 -1099 0
-948 -1100 0
-949 -957 0
-950 -958 0
-951 -959 0
-952 -960 0
-953 -1089 0
-954 -1090 0
-955 -1091 0
-956 -1092 0
-957 -997 0
-958 -998 0
-959 -999 0
-960 -1000 0
-961 -1057 0
-962 -1058 0
-963 -1059 0
-964 -1060 0
-973 -1065 0
-974 -1066 0
-975 -1067 0
-976 -1068 0
-973 -1073 0
-974 -1074 0
-975 -1075 0
-976 -1076 0
-977 -1029 0
-978 -1030 0
-979 -1031 0
-980 -1032 0
-989 -1017 0
-990 -1018 0
-991 -1019 0
-992 -1020 0
-1009 -1013 0
-1010 -1014 0
-1011 -1015 0
-1012 -1016 0
-1013 -1089 0
-1014 -1090 0
-1015 -1091 0
-1016 -1092 0
-1021 -1065 0
-1022 -1066 0
-1023 -1067 0
-1024 -1068 0
-1021 -1069 0
-1022 -1070 0
-1023 -1071 0
-1024 -1072 0
-1029 -1053 0
-1030 -1054 0
-1031 -1055 0
-1032 -1056 0
-1033 -1041 0
-1034 -1042 0
-1035 -1043 0
-1036 -1044 0
-1037 -1085 0
-1038 -1086 0
-1039 -1087 0
-1040 -1088 0
-1045 -1049 0
-1046 -1050 0
-1047 -1051 0
-1048 -1052 0
-1045 -1053 0
-1046 -1054 0
-1047 -1055 0
-1048 -1056 0
-1045 -1061 0
-1046 -1062 0
-1047 -1063 0
-1048 -1064 0
-1045 -1085 0
-1046 -1086 0
-1047 -1087 0
-1048 -1088 0
-1049 -1085 0
-1050 -1086 0
-1051 -1087 0
-1052 -1088 0
-1057 -1069 0
-1058 -1070 0
-1059 -1071 0
-1060 -1072 0
-1065 -1069 0
-1066 -1070 0
-1067 -1071 0
-1068 -1072 0
-1065 -1073 0
-1066 -1074 0
-1067 -1075 0
-1068 -1076 0
-1081 -1093 0
-1082 -1094 0
-1083 -1095 0
-1084 -1096 0
-1081 -1101 0
-1082 -1102 0
-1083 -1103 0
-1084 -1104 0
1 0
6 0
11 0
